"user_id","status_id","created_at","screen_name","text","favorite_count","retweet_count"
"x233585808","x1434320952389689349",2021-09-05 01:02:18,"CRANberriesFeed","CRAN updates: aRtsy cPseudoMaRg glca rtrend spatPomp tiledb #rstats",1,2
"x233585808","x1434079331370868736",2021-09-04 09:02:11,"CRANberriesFeed","CRAN updates: Rhpc RhpcBLASctl #rstats",1,2
"x233585808","x1434124621159272448",2021-09-04 12:02:09,"CRANberriesFeed","CRAN updates: boot.pval #rstats",1,2
"x233585808","x1434260522468323332",2021-09-04 21:02:10,"CRANberriesFeed","CRAN updates: PASWR2 #rstats",1,2
"x233585808","x1434200119868526599",2021-09-04 17:02:09,"CRANberriesFeed","CRAN updates: hkdatasets #rstats",1,2
"x233585808","x1434018942612353025",2021-09-04 05:02:13,"CRANberriesFeed","CRAN updates: CNVRG SemNeT #rstats",1,2
"x233585808","x1434215223498625026",2021-09-04 18:02:10,"CRANberriesFeed","CRAN updates: eye RLT #rstats",1,2
"x233585808","x1434034055050301441",2021-09-04 06:02:16,"CRANberriesFeed","CRAN updates: cmprskcoxmsm dynutils mRMRe UKB.COVID19 #rstats",1,2
"x233585808","x1434275627503427589",2021-09-04 22:02:11,"CRANberriesFeed","CRAN updates: bqtl #rstats",1,2
"x233585808","x1434139734591348738",2021-09-04 13:02:12,"CRANberriesFeed","CRAN updates: nlmixr RPresto #rstats",3,3
"x1327925920624087040","x1433942889873252356",2021-09-04 00:00:00,"EasternStyle1","Car moving robot.#Python #BigData #Analytics #AI #ML #DataScience #IoT #IIoT #Azure #RStats #DotNet #CPP #Java #TensorFlow #JavaScript #ReactJS #Serverless #Linux #Programming #Coding #100DaysofCode https://t.co/deisT03LOe",14,42
"x1327925920624087040","x1433973088559894529",2021-09-04 02:00:00,"EasternStyle1","IBM has unveiled an on-chip accelerated artificial intelligence processor.#Programming #IoT #AI #100DaysOfCode #MachineLearning #ML #Airdrop #Python #CloudComputing #Analytics #Serverless #womenwhocode #cybersecurity #CodeNewbie #DataScience #5G #RTXOn #RStats https://t.co/5G1F2chYzZ",5,17
"x1327925920624087040","x1434320625972088835",2021-09-05 01:01:00,"EasternStyle1","The four axis arm of an N9 laboratory robot in the North Robotics lab in Victoria, British Columbia, Canada.#Programming #IoT #AI #100DaysOfCode #MachineLearning #ML #Airdrop #Python #Analytics #Serverless #womenwhocode #cybersecurity #CodeNewbie #DataScience #5G #RTXOn #RStats https://t.co/94MQQugMYH",9,25
"x1327925920624087040","x1433957990063824896",2021-09-04 01:00:01,"EasternStyle1","Gravity walking bipedal structure.#Python #BigData #Analytics #AI #ML #DataScience #IoT #IIoT #Azure #RStats #DotNet #CPP #Java #TensorFlow #JavaScript #ReactJS #Serverless #Linux #Programming #Coding #100DaysofCode https://t.co/uvDYWCzR5V",77,88
"x1327925920624087040","x1434305280125374468",2021-09-05 00:00:01,"EasternStyle1","Around 70 Apple-1 computers are known to exist today and of those less than 10 still work.#Programming #IoT #AI #100DaysOfCode #MachineLearning #ML #Airdrop #Python #CloudComputing #Analytics #Serverless #womenwhocode #cybersecurity #CodeNewbie #DataScience #5G #RTXOn #RStats https://t.co/AICAmr1JSy",2,2
"x935569091678691328","x1434244389459484674",2021-09-04 19:58:04,"tidyversetweets","Errors trying to use pewdata package #tidyverse #rstats https://t.co/w27eo5tWVL",2,2
"x935569091678691328","x1434147271642320900",2021-09-04 13:32:09,"tidyversetweets","Replace strings in a dataframe based on another dataframe in R Studio #tidyverse #rstats https://t.co/xTH9GqCj5L",1,3
"x935569091678691328","x1434200549080002563",2021-09-04 17:03:51,"tidyversetweets","Adding a nudge_y to the data labels of a ""Jittered"" R ggplot2 graph - Categorical values #tidyverse #rstats https://t.co/OrqSSTPULM",0,1
"x935569091678691328","x1434184337818226693",2021-09-04 15:59:26,"tidyversetweets","Error trying to plot histogram #tidyverse #rstats https://t.co/We3mYGCNq7",1,2
"x935569091678691328","x1434103682740654082",2021-09-04 10:38:56,"tidyversetweets","reduce and https://t.co/zNZluvUA6X work differently for 1-element list #tidyverse #rstats https://t.co/PTI9mKId3y",1,2
"x935569091678691328","x1434031224062836738",2021-09-04 05:51:01,"tidyversetweets","histogram of grouped/count/ data in ggplot #tidyverse #rstats https://t.co/EI3YXj7Y7D",1,2
"x935569091678691328","x1434298369569140751",2021-09-04 23:32:33,"tidyversetweets","R: Installation of several packages had non-zero exit status #tidyverse #rstats https://t.co/yDxzq3YxPF",1,2
"x935569091678691328","x1434319211891867651",2021-09-05 00:55:23,"tidyversetweets","R Installation Error: error in load action .__A__.1 - function not provided by package 'Rcpp' #tidyverse #rstats https://t.co/0gXUK5dMAP",1,2
"x935569091678691328","x1434250536526794757",2021-09-04 20:22:29,"tidyversetweets","About R ggplot2 could not plot correct graph in for loop #tidyverse #rstats https://t.co/Uls1Yjm3SF",0,1
"x935569091678691328","x1434162158795960328",2021-09-04 14:31:18,"tidyversetweets","Which function to choose #tidyverse #rstats https://t.co/vVPaED9ydQ",1,2
"x935569091678691328","x1434259773348745219",2021-09-04 20:59:11,"tidyversetweets","How to select default lines for plotly in R? #tidyverse #rstats https://t.co/DZbWMNfmRk",0,1
"x935569091678691328","x1434268168231477248",2021-09-04 21:32:33,"tidyversetweets","Disabling selectizeInput in second page of datatable in RShiny #tidyverse #rstats https://t.co/pFh9SjZEiz",0,1
"x935569091678691328","x1434099116238385152",2021-09-04 10:20:48,"tidyversetweets","Loading multiple .RData and binding into a single data.frame #tidyverse #rstats https://t.co/ixsa5kcaqZ",1,2
"x935569091678691328","x1434099115588194305",2021-09-04 10:20:48,"tidyversetweets","Starting out _ Object wasn't defined? #tidyverse #rstats https://t.co/13N0u6QSMf",1,2
"x935569091678691328","x1434028294546939904",2021-09-04 05:39:23,"tidyversetweets","Rolling regression coefficients using modeltime or tidymodels #tidyverse #rstats https://t.co/Ijt99jRbKs",1,2
"x935569091678691328","x1433977943676502021",2021-09-04 02:19:18,"tidyversetweets","how to show all mean values in the boxplot with ggplot2? #tidyverse #rstats https://t.co/LrxhOEzs9r",2,2
"x935569091678691328","x1434207042462494721",2021-09-04 17:29:39,"tidyversetweets","dgof Cramer-von-Mises test #tidyverse #rstats https://t.co/8xAbd5u3NJ",0,1
"x935569091678691328","x1434264962462068738",2021-09-04 21:19:49,"tidyversetweets","cannot reset password #tidyverse #rstats https://t.co/GhOnl5qCQm",1,2
"x935569091678691328","x1434162159387283461",2021-09-04 14:31:18,"tidyversetweets","Why won't tryCatch() 'error = function(e){}' execute the same, nested in a function, as the console? #tidyverse #rstats https://t.co/DR2oZ4T0dW",1,3
"x935569091678691328","x1434254025596178433",2021-09-04 20:36:21,"tidyversetweets","System command 'Rcmd.exe' failed, exit status: 1, stdout + stderr empty #tidyverse #rstats https://t.co/G8oS6lheum",0,1
"x935569091678691328","x1434025340385443840",2021-09-04 05:27:38,"tidyversetweets","How to multiply all the columns of my data frame with a scalar where each cell contains a character as well? #tidyverse #rstats https://t.co/imWHdMGbEF",1,2
"x935569091678691328","x1434116833271898112",2021-09-04 11:31:12,"tidyversetweets","R Hunspell autocorrect and stemming in pipe function for 2 columns tribble / with unnest_tokens #tidyverse #rstats https://t.co/Xp74gMblM6",1,2
"x935569091678691328","x1433977944213389315",2021-09-04 02:19:18,"tidyversetweets","Add density curve to percentage histogram #tidyverse #rstats https://t.co/rmBAL8vsQj",0,1
"x935569091678691328","x1434099116729147399",2021-09-04 10:20:48,"tidyversetweets","Count matches between two categories of columns #tidyverse #rstats https://t.co/QmiWCB39Ve",1,2
"x935569091678691328","x1433955251422380032",2021-09-04 00:49:08,"tidyversetweets","devtools::check() Warning in system(cmd) : 'make' not found but I have RTools installed. #tidyverse #rstats https://t.co/Gsff2gNTfL",0,1
"x935569091678691328","x1434250537076248576",2021-09-04 20:22:29,"tidyversetweets","How to use group by and breakdown the information into the categories. #tidyverse #rstats https://t.co/1nJIaw8l0l",2,2
"x935569091678691328","x1434046437076045825",2021-09-04 06:51:28,"tidyversetweets","select rows in dataframe in R #tidyverse #rstats https://t.co/rhNuGpX2uo",2,2
"x935569091678691328","x1434177643235135493",2021-09-04 15:32:50,"tidyversetweets","The numeric value and the legend range not matching #tidyverse #rstats https://t.co/JotGD9VFcK",1,3
"x935569091678691328","x1434164498647109632",2021-09-04 14:40:36,"tidyversetweets","Merge legend in ggplot when the geoms are different #tidyverse #rstats https://t.co/us6OcFQU6b",1,3
"x1151985816056619008","x1434318822182371337",2021-09-05 00:53:50,"RLadiesPuebla","Si se están adentrando al mundo de R, les dejamos esta súper oportunidad de @AIinclusive &amp; @rfortherest 

📈💜

#RStats https://t.co/yX7Bqaqgqm",2,3
"x1025396335766384640","x1434315965358039041",2021-09-05 00:42:29,"tbrown122387","Wrote a short vignette with some cPseudoMarg examples

https://t.co/O6S8qN7PNz

#RStats",0,2
"x1026075110569070593","x1434033543731109889",2021-09-04 06:00:14,"JoachimSchork","How to handle missing values (listwise deletion vs. single vs. multiple imputation) using the R programming language. The video was published as a guest tutorial on the Data Professor YouTube channel: https://t.co/eBcgZ6IURi

#RStats #R4DS #StatisticalAnalysis",8,4
"x1026075110569070593","x1434171903179112455",2021-09-04 15:10:02,"JoachimSchork","How to draw a pairs plot using Base R &amp; the ggplot2 package: https://t.co/VSiSgDYyoq

#programming #datavis #ggplot2 #Rpackage #RStats #datascienceenthusiast #DataViz #tidyverse",21,2
"x1026075110569070593","x1434311574404096001",2021-09-05 00:25:02,"JoachimSchork","How to draw a histogram with overlaid density and frequency counts on the y-axis using the ggplot2 package in the R programming language: https://t.co/QHn9bhup4t

#ggplot2 #statisticsclass #tidyverse #statisticians #DataViz #Rpackage #RStats",5,3
"x4569414259","x1434311417117642755",2021-09-05 00:24:24,"ChristinABuelow","results so far are different from what I would have thought! - only a few hours left to have your say #rstats #datascience https://t.co/Z1evDi3wCi",1,3
"x944231","x1434310927415926789",2021-09-05 00:22:27,"statwonk","It's cool how the leverage tool allows you to focus on the data points on the margin of information.

There's some missing puzzle piece(s) that cause the residuals I have highlighted. #rstats https://t.co/cDFdNNInEa",7,2
"x29983351","x1433945311450370051",2021-09-04 00:09:38,"robertodepinho","Brasil
Novos casos(Média 7 dias):
Último dia:21.366 (03-set)
Dia anterior:22.106
Há uma semana:25.055
Há 30 dias:32.721

Mortes diárias(Média 7 dias):
Último dia:616
Dia anterior:629
Há uma semana:685
Há 30 dias:921
#rstats (2/5)

Info: https://t.co/d8kuBndYvF https://t.co/um0QIBN7Ak",0,1
"x29983351","x1434287081199652869",2021-09-04 22:47:42,"robertodepinho","Share of Population Vaccinated against Covid-19 by country

Data: @OurWorldInData

#rstats (1/2)

Info on estimates &amp; online dashboards: https://t.co/2TcIAe6cfe https://t.co/aE7Yq0Lr0H",0,2
"x29983351","x1434307631087333379",2021-09-05 00:09:22,"robertodepinho","Evolução
Novos Casos (média móvel), Brasil, UFs, ISR e CHL para comparação, 04-Sep

Verde-Vencendo, Laranja-Quase lá, Vermelho-Necessitam agir
inspirado em @endCOVID19

Atenção: Escala diferente por quadro
info e painéis online: https://t.co/d8kuBndYvF

#rstats 1/6 https://t.co/a0r6cqUiuC",0,2
"x29983351","x1434304623851057152",2021-09-04 23:57:25,"robertodepinho","Brasil
Novos casos(Média 7 dias):
Último dia:21.013 (04-set)
Dia anterior:21.450
Há uma semana:24.716
Há 30 dias:32.459

Mortes diárias(Média 7 dias):
Último dia:618
Dia anterior:618
Há uma semana:688
Há 30 dias:890
#rstats (2/5)

Info: https://t.co/d8kuBndYvF https://t.co/2eylXAwssj",0,1
"x29983351","x1434304655878721537",2021-09-04 23:57:32,"robertodepinho","Brasil: Ranking de países:

Novos casos (média 7 dias): 5° (03-set)
Total de Casos: 3°

Mortes ao dia (média 7 dias): 4°
Total de Mortes: 2°

Dados:
Brasil:@Brasil_io
Países:@jhusystems

#rstats (3/5)
Info&amp;painéis: https://t.co/d8kuBndYvF https://t.co/bvJgDi0oy8",0,1
"x29983351","x1433945627377868805",2021-09-04 00:10:53,"robertodepinho","Vacinação nos países 

Dados: @OurWorldInData

#rstats (5/5)

Info e painéis online: https://t.co/d8kuBmWn75 https://t.co/udWGsegq6P",0,1
"x29983351","x1434304596541853696",2021-09-04 23:57:18,"robertodepinho","Gráficos atualizados para 04-set

Brasil
Novos casos: 20.477
Média 7 dias: 21.013
Dia anterior: 21.450

Mortes no dia: 643
Média 7 dias: 618
Dia anterior: 618

Casos totais: 20.881.376

Mortes: 583.611

#rstats (1/5)

Info e painéis: https://t.co/d8kuBndYvF https://t.co/YG4aCnDiO7",0,2
"x29983351","x1433945283470188544",2021-09-04 00:09:31,"robertodepinho","Gráficos atualizados para 03-set

Brasil
Novos casos: 23.765
Média 7 dias: 21.366
Dia anterior: 22.106

Mortes no dia: 751
Média 7 dias: 616
Dia anterior: 629

Casos totais: 20.860.899

Mortes: 582.968

#rstats (1/5)

Info e painéis: https://t.co/d8kuBndYvF https://t.co/K7dTiVmGgT",0,2
"x29983351","x1434286880124776453",2021-09-04 22:46:54,"robertodepinho","Porcentaje de población vacunada contra Covid-19 por país

Data:@OurWorldInData

 #rstats (2/2)

Información sobre estimaciones y paneles en línea: https://t.co/2TcIAe6cfe https://t.co/GhatioxRFy",1,1
"x29983351","x1433945337484480523",2021-09-04 00:09:44,"robertodepinho","Brasil: Ranking de países:

Novos casos (média 7 dias): 5° (02-set)
Total de Casos: 3°

Mortes ao dia (média 7 dias): 4°
Total de Mortes: 2°

Dados:
Brasil:@Brasil_io
Países:@jhusystems

#rstats (3/5)
Info&amp;painéis: https://t.co/d8kuBndYvF https://t.co/hrbhcJV4yw",0,1
"x29983351","x1433945922711527425",2021-09-04 00:12:04,"robertodepinho","Evolução
Novos Casos (média móvel), Brasil, UFs, ISR e CHL para comparação, 03-set

Verde-Vencendo, Laranja-Quase lá, Vermelho-Necessitam agir
inspirado em @endCOVID19

Atenção: Escala diferente por quadro
info e painéis online: https://t.co/d8kuBndYvF

#rstats 1/6 https://t.co/GnaLBZUvaE",0,2
"x29983351","x1433945357478731780",2021-09-04 00:09:49,"robertodepinho","Vacinação nos países 

Dados: @OurWorldInData

#rstats (4/5)

Info e painéis online: https://t.co/d8kuBndYvF https://t.co/YEzueEVSRu",0,1
"x29983351","x1434304938918793217",2021-09-04 23:58:40,"robertodepinho","Vacinação nos países 

Dados: @OurWorldInData

#rstats (5/5)

Info e painéis online: https://t.co/d8kuBndYvF https://t.co/63OP6CC3FT",0,1
"x29983351","x1434304673897398272",2021-09-04 23:57:37,"robertodepinho","Vacinação nos países 

Dados: @OurWorldInData

#rstats (4/5)

Info e painéis online: https://t.co/d8kuBndYvF https://t.co/q8gFkAJvIk",0,1
"x29983351","x1434287324964270084",2021-09-04 22:48:40,"robertodepinho","Share of Population Vaccinated against Covid-19 by country

Data: @OurWorldInData

#rstats (2/2)

Info on estimates &amp; online dashboards: https://t.co/2TcIAe6cfe https://t.co/KD7dfIkVHb",1,1
"x29983351","x1434286639724048384",2021-09-04 22:45:57,"robertodepinho","Porcentaje de población vacunada contra Covid-19 por país

Data:@OurWorldInData

 #rstats (1/2)

Información sobre estimaciones y paneles en línea: https://t.co/2TcIAe6cfe https://t.co/dYTIGaAK98",1,3
"x268619848","x1434095753383841794",2021-09-04 10:07:26,"Sheraj99","The Must Have #Books for ML Engineers (or Aspiring Ones)! #BigData #Analytics #DataScience #AI #MachineLearning #IoT #IIoT #Python #RStats #TensorFlow #JavaScript #ReactJS #Serverless #DataScientist #Linux #Programming #Coding #100DaysofCode 
https://t.co/FbKluJwpcJ",10,22
"x268619848","x1433958056224870401",2021-09-04 01:00:16,"Sheraj99","The Sampling Distributions with Python Code. #BigData #Analytics #DataScience #AI #MachineLearning #IoT #IIoT #Python #RStats #TensorFlow #Java #JavaScript #ReactJS #CloudComputing #Serverless #DataScientist #Linux #Programming #Coding #100DaysofCode 
https://t.co/jabyDMGG2X",14,37
"x268619848","x1434095621133189123",2021-09-04 10:06:54,"Sheraj99","Functional Data Analysis (FDA). #BigData #Analytics #DataScience #AI #MachineLearning #IoT #IIoT #PyTorch #Python #RStats #TensorFlow #Java #JavaScript #ReactJS #GoLang #CloudComputing #Serverless #DataScientist #Linux #Programming #Coding #100DaysofCode 
https://t.co/BUnqCqw5q3",28,46
"x268619848","x1434307010183536644",2021-09-05 00:06:54,"Sheraj99","""Professors are human programmers. Psychologists are human debuggers."" https://t.co/9YJdOyBYt3 #BigData #Analytics #DataScience #AI #ML #IIoT #PyTorch #Python #RStats #TensorFlow #JavaScript #ReactJS  #CloudComputing #Serverless #DataScientist #Linux #Programming #100DaysofCode",1,5
"x268619848","x1434307499356737542",2021-09-05 00:08:50,"Sheraj99","AI Best: New R Books Added to Big Book Of R. #BigData #Analytics #DataScience #IoT #IIoT #PyTorch #Python #RStats #TensorFlow #Java #JavaScript #ReactJS #GoLang #CloudComputing #Serverless #DataScientist #Linux #Books #Programming #Coding #100DaysofCode 
https://t.co/K7Xu5DOvTK",7,15
"x268619848","x1433952422947328000",2021-09-04 00:37:53,"Sheraj99","The Mechanics of NLP. #BigData #Analytics #DataScience #AI #MachineLearning #IoT #IIoT #NLProc #PyTorch #Python #RStats #TensorFlow #Java #JavaScript #ReactJS #GoLang #CloudComputing #Serverless #DataScientist #Linux #Programming #Coding #100DaysofCode 
https://t.co/yJjIvNc0Xd",41,51
"x268619848","x1434306265560358912",2021-09-05 00:03:56,"Sheraj99","AI Best: Germain Tobar Just Proved Mathematically Paradox-Free Time Travel Is Possible.#BigData #Analytics #DataScience #AI #ML #IIoT #PyTorch #Python #RStats #TensorFlow #JavaScript #ReactJS  #CloudComputing #Serverless #Linux #Programming #100DaysofCode
https://t.co/0ZU3wgQfhU",7,13
"x268619848","x1434305661689532416",2021-09-05 00:01:32,"Sheraj99","Emerging #Analytics tools challenge dominant #BigData philosophy. #DeepLearning #MachineLearning #DataScience #AI #IIoT #PyTorch #Python #RStats #TensorFlow #JavaScript #ReactJS  #CloudComputing #Serverless #DataScientist #Linux #Programming #100DaysofCode
https://t.co/bsOCzu0XvU",3,12
"x268619848","x1434299700363079683",2021-09-04 23:37:51,"Sheraj99","A Machine Learning CheatSheet: Streamlit. #BigData #Analytics #DataScience #AI #MachineLearning #IoT #IIoT #PyTorch #Python #RStats #TensorFlow #JavaScript #ReactJS  #CloudComputing #Serverless #DataScientist #Linux #Programming #Coding #100DaysofCode
https://t.co/TBasNKTbcu",6,18
"x268619848","x1434292247550365705",2021-09-04 23:08:14,"Sheraj99","All You Need to Know About Convolutional Neural Networks. #BigData #Analytics #DataScience #AI #MachineLearning #IoT #IIoT #Python #RStats #TensorFlow #JavaScript #ReactJS #CloudComputing #Serverless #DataScientist #Linux #Programming #100DaysofCode 
https://t.co/WUsBHl6nn0",7,21
"x13967522","x1434306237512962049",2021-09-05 00:03:49,"MikeKSmith","@tladeras Hey Ted, thanks for all you do for the #Rstats community, and also for your inspiration musically using #norns. Hope you’re having a happy birthday. Best wishes.",0,1
"x1203623631856779264","x1434212209773662209",2021-09-04 17:50:11,"icymi_r","✍️🔤 Introducing {numberwang} - numbers to words and vice versa) - coolbutuseless

👤 mikefc @coolbutuseless  

🔗 https://t.co/CgMIxEzGRK
#rstats #datascience https://t.co/Ki0qUtOqIZ",13,5
"x1203623631856779264","x1434000814683705347",2021-09-04 03:50:11,"icymi_r","📺 Data Import &amp; Export in R - YouTube

👤 Statistik in Dresden @statistikindd  

🔗 https://t.co/gtPw1YemqH
#rstats #datascience",27,11
"x1203623631856779264","x1434254489691754503",2021-09-04 20:38:12,"icymi_r","📦 zipangu • Japanese utility functions and data

👤 Uryu Shinya @u_ribo  

🔗 https://t.co/3rTaW6Fxte
#rstats #datascience https://t.co/Y4jijlfmkE",5,3
"x1203623631856779264","x1434043086565527552",2021-09-04 06:38:09,"icymi_r","✍️🐧 parameterised penguins: How to use parameters and {purrr} to render many Rmd reports

👤 A/Prof Jenny Richmond @jenrichmondphd  

🔗 https://t.co/2JJ4z2xkeQ
#rstats #datascience https://t.co/tO6RuMFxbN",67,15
"x1203623631856779264","x1434296769001791496",2021-09-04 23:26:12,"icymi_r","📦🖥🎨 dehex • learn to assess a colour hex code by eye

👤 Matt Dray @mattdray  

🔗 https://t.co/iFFDUCsvOr
#rstats #datascience https://t.co/DhCTBcHKPs",15,6
"x1203623631856779264","x1434127685287034881",2021-09-04 12:14:19,"icymi_r","✍️📈 Detecting time series outliers 

👤 Rob J Hyndman @robjhyndman  

🔗 https://t.co/GB3GSifGsH
#rstats #datascience https://t.co/mxNZw0kAy9",132,28
"x1203623631856779264","x1433958643116937219",2021-09-04 01:02:36,"icymi_r","📦 gitsum • parse and summarise git repository history

👤 Lorenz Walthert @lorenzwalthert  

🔗 https://t.co/O7SATUnUrf
#rstats #datascience https://t.co/pKIr89xgrJ",24,6
"x1203623631856779264","x1434170033417162755",2021-09-04 15:02:36,"icymi_r","✍️⇆ Comparing SQLite, DuckDB and Arrow with UN Trade Data · Pachá

👤 Pachá @pachadotdev  

🔗 https://t.co/DRk92S1Jlo
#rstats #datascience",18,6
"x877278595","x1434292880638578690",2021-09-04 23:10:45,"GrantChalmers","Some new grids added. Carbon Intensity of Electricity consumption. Hourly readings over the last 10 days, overall median represented by a blue asterisk. #rstats #ggplot2 #gganimate #carbonneutrality #ESG #cleanenergy #EnergyTransition #energytwitter h/t @electricityMap https://t.co/4ddkSWtUDU",11,6
"x1173918910149738497","x1434291463152603140",2021-09-04 23:05:07,"_msquiroga","Quería empezar a practicar gráficos de datos espaciales, y elegí algo que me pone de muy mal humor: la poca cantidad de espacios verdes que hay en la Ciudad de Buenos Aires.

#rstats #rstatsES https://t.co/XbHxpL5l8l",3,4
"x3020379784","x1434289477803970565",2021-09-04 22:57:13,"han_lockwood","#RStats expert 👌🏻😅

#Stats #R #RStudio #PhDLife https://t.co/wfvD1IdPcA",0,1
"x18068926","x1434162354808365064",2021-09-04 14:32:05,"marcusborba","New Traffic Sensor Uses Artificial Intelligence to Detect Any Vehicle on the Road

https://t.co/EhHed4UtbT

#MachineLearning #BigData #Analytics #Python #DataScience #100DaysofCode #serverless #womenwhocode #Industry40 #iot #5G #RStats #Algorithms #CyberSecurity #DeepLearning #AI https://t.co/UHigLG7bnQ",13,26
"x18068926","x1434122443455705094",2021-09-04 11:53:29,"marcusborba","How Airlines Use AI To Streamline Operations, Save Fuel

https://t.co/oyA8DVY5VL @Analyticsindiam

#ArtificialIntelligence #MachineLearning #DeepLearning #DataScience #ML #100DaysofCode #womenwhocode #javascript #iot #serverless #BigData #Analytics #RStats #Python #Algorithms #AI https://t.co/jwjLm3lGmb",6,22
"x18068926","x1434288905520615430",2021-09-04 22:54:57,"marcusborba","Make way for robots

https://t.co/0zo2StTImk @techreview

#Robotics #ArtificialIntelligence #DataScience #MachineLearning #BigData #Analytics #python #rstats #linux #serverless #java #womenwhocode #ML #100daysofcode #AI #DeepLearning #NeuralNetworks #DigitalTransformation #Robots https://t.co/rwhHsoJ7qk",7,35
"x18068926","x1434146785983934468",2021-09-04 13:30:13,"marcusborba","Some ways agencies can keep #artificialintelligence from getting out of control

https://t.co/DZXbRgewzO #MachineLearning #DataScience #100DaysofCode #womenwhocode #serverless #Industry40 #iot #5G #RStats #Python #BigData #Analytics #CyberSecurity #DeepLearning #Algorithms #AI https://t.co/rOjwMb4K1g",5,24
"x198322962","x1434285499473010694",2021-09-04 22:41:25,"ShornOne","- Impact -

Trying it out

Perhaps a new JunkBOt series....

#RStats #art #drawing

#plottertwitter #generativeart #drawings https://t.co/g0GicRqLH0",0,3
"x56458354","x1434281058124640256",2021-09-04 22:23:46,"d_olivaw","Coming to the next metR release is a feature that was a long way coming: proper contour labelling. More details once all the kinks are finished and the thing is on CRAN, but finally you wo't need the hacky 
geom_contour() + geom_text_contour() mess.

#rstats https://t.co/9AxK5jZfSP",9,4
"x23247501","x1434279339458236423",2021-09-04 22:16:56,"elcheff","Número de partidos televisados en #sundaynightfootball &amp; #mondaynightfootball  por equipos en la #NFL vs. @VegasInsider Wins Totals betting odds @thomas_mock's #espnscrapeR. #RStats #rstatsES 
insp: @owenlhjphillips 
code 💻https://t.co/57vcWhL90Y https://t.co/WTUO26YPOg",5,3
"x325076430","x1434275256248700937",2021-09-04 22:00:43,"RajniSethi2016","#dataanalytics  #predictive, #prescriptive  #BI #BusinessAnalytics  #AI #database #Data #Analytics #BigData #Rstats #Reactjs #Python #DataScience #IIoT #ML #NLP #TensorFlow #Serverless #100DaysOfCode #javascript #machinelearning #coding  https://t.co/litfixjuu5",2,6
"x1186330112897105920","x1434131790743093250",2021-09-04 12:30:38,"data_question","Which of the following geom do you use to draw a line chart in R using `ggplot()`? #RStats #DataScience [TimeStamp:04092021123038]",4,4
"x1186330112897105920","x1434275101676036106",2021-09-04 22:00:06,"data_question","Correct Ans: `geom_line()`. `geom_line()` makes a line plot. `geom_path()` can also create line plot. The difference between the two is `geom_path()` connects the observations in the order in which they appear in the data. #RStats #DataScience [TimeStamp:04092021220006]",3,3
"x1186330112897105920","x1434239744901218304",2021-09-04 19:39:36,"data_question","Don't mind me, just another meme on linear regression 
#RStats #DataScience https://t.co/s67qNv3v1r",254,58
"x1186330112897105920","x1434275102913441794",2021-09-04 22:00:06,"data_question","`geom_line()` connects them in order of the variable on the x axis. #RStats #DataScience [TimeStamp:04092021220006]",2,5
"x1138822334423412736","x1434273569698091012",2021-09-04 21:54:01,"mustafa__cavus","Once upon a time #rstats https://t.co/SPpsnapBQD",12,4
"x2385131","x1434273380870590465",2021-09-04 21:53:16,"eddelbuettel","@kjhealy @tcarpenter216 Let's say _Thank You Very Much_ for the strategic blunder of StatSoft, sole licensee for the ""commercial S"" i.e. S-Plus, to then *not* offer a mac version so that two (then young) academics in Auckland went off to write their own...  The rest, as they say, is 
#RStats #History.",24,3
"x43186378","x1434270557059551235",2021-09-04 21:42:02,"CMastication","#rstats 😲 https://t.co/AA61lJsxOk",20,3
"x73024901","x1434262072666304513",2021-09-04 21:08:20,"Byunghwan_Son","1. trying to install a dev pkg, nothing happens after 30s
2. push 'stop'
3. google it and get some (unrelated) answers
4. repeat 1-3 
5. son asks for help w/ game
6. an hr later, come back to find out that the pkg was installed. It just needed time. Son saved the day. #RStats",3,2
"x1041202081577746432","x1434260280519835658",2021-09-04 21:01:12,"DataScience_Pe","#Datalovers 🤩 Sigue aprendiendo junto a DSRP ✨ TEMA: ¿Cómo iniciar en la ciencia de datos siendo estudiante? 👨‍💻
📢 https://t.co/OMUEM28ZOF a través de @YouTube 
.
#datascience #tutorial #tutoriales #datos #coding #programming #rstats #rstudio #stats #cienciadedatos #dsrp",0,0
"x1041202081577746432","x1434176981378162692",2021-09-04 15:30:12,"DataScience_Pe","Buen día #Datalovers 😎 #DSRP trae para ti: INTRODUCCIÓN A PYTHON ✨
📢https://t.co/fJ7Y70PNvM a través de @YouTube 
.
#datascience #tutorial #tutoriales #python #introduccion #coding #programming #rstats #rstudio #stats #dsrp",0,4
"x1041202081577746432","x1434215025128968196",2021-09-04 18:01:23,"DataScience_Pe","Hola #Datalovers 🙌 Sigamos aprendiendo sobre AUTOMATIZACIÓN DE PROCESOS CON PYTHON 👩‍💻
📢 DSRP: https://t.co/oQ1Sc6hcyW a través de @YouTube 
.
#datascience #tutorial #tutoriales #python #automatizacion #coding #programming #rstats #rstudio #stats #cienciadedatos",4,3
"x774550615204790272","x1434255194511093762",2021-09-04 20:41:00,"SourabhSKatoch","7 Best Visual Studio Code Tricks every Programmer should know.

https://t.co/eGElOV1is3

#100DaysOfCode #MachineLearning #Python #programming #IoT #flutter #100DaysOfMLCode #javascript #womenwhocode #RStats #Serverless #CodeNewbie #DataScience #DEVCommunity https://t.co/9pQDtIOiyq",7,31
"x774550615204790272","x1434110226152640515",2021-09-04 11:04:57,"SourabhSKatoch","Open AI Codex/GitHub Copilot alternative for VS Code -- absolutely free of cost.

https://t.co/616Nwboz6W

#Python #programming #100DaysOfCode #MachineLearning #100DaysOfMLCode #AI #javascript #womenwhocode #RStats #Serverless #CodeNewbie #DataScience #DEVCommunity https://t.co/AmSxcu041F",10,24
"x968883037986541569","x1434250481942024193",2021-09-04 20:22:16,"ImageAltText","@MiningGenome #Bioinformatics #OpenScience #DataScience #100DaysOfCode #WomenWhoCode #BigData #MachineLearning #serverless #Linux #Python #coding #SciComm #PhdChat #PhdLife #Rstats #Genomics #CompBioSkills #edu [2/2]",2,6
"x1264433760","x1434087679403208706",2021-09-04 09:35:21,"Eli_Krumova","Top 10 #Python #DataScience Libraries
👉🏽https://t.co/DVPCSlSsbM
By @KDnuggets

#BigData #Analytics #MachineLearning #ML #AI #DL #IoT #IIoT #IoTPL #Serverless #RStats #DX #CloudComputing #RPA #NLP #CyberSecurity #Programming #Coding #robotics #100DaysofCode #DEVCommunity #dataviz https://t.co/3FL7NU3b8E",9,29
"x1264433760","x1434176067896479748",2021-09-04 15:26:34,"Eli_Krumova","🤣 @SourabhSKatoch:
'#Programmer in the 1950 🆚 2020' 👨🏽‍💻
#SaturdayThoughts #SaturdayVibes

#100DaysOfCode #100DaysOfMLCode #coding #programming #Python #RStats #Flutter #IoT #IoTPL #IIoT #AI #MachineLearning #ML #CloudComputing #DataScience #DEVCommunity #WomenWhoCode #CodeNewbie https://t.co/mBENEYLGmW https://t.co/2Y4ziTq8wa",13,23
"x1264433760","x1434093973786726401",2021-09-04 10:00:22,"Eli_Krumova","All #MachineLearning Models Explained in 5min
👉🏽https://t.co/3gyadBrFP4
v @SourabhSKatoch

#BigData #Analytics #DataScience #AI #ML #IoT #IIoT #IoTPL #Python #RStats #CloudComputing #Serverless #RPA #NLP #DataScientist #Programming #Coding #100DaysofCode #DEVCommunity #CodeNewbie https://t.co/WJ8MGogCUa https://t.co/VFhxD1rZND",16,35
"x1264433760","x1434248832553046020",2021-09-04 20:15:43,"Eli_Krumova","😂 @SourabhSKatoch:
'#Programmer's life in a nutshell.'

Who can relate❓
#SaturdayThoughts #SaturdayMotivation

#100DaysOfCode #coding #programming #CodeNewbie #WomenWhoCode #MachineLearning #ML #AI #Python #RStats #IoT #IIoT #IoTPL #NLP #DataScience #DataScientist #DEVCommunity https://t.co/ShZqLiz2OJ https://t.co/HUS1PoGdsM",7,25
"x1264433760","x1434110743616663558",2021-09-04 11:07:00,"Eli_Krumova","How to Read #Math as a #SoftwareEngineer
👉🏽https://t.co/NdWxydXSCW
v/ @SourabhSKatoch

#BigData #Analytics #DataScience #AI #ML #IoT #IIoT #IoTPL #Python #RStats #CloudComputing #Serverless #RPA #NLP #DataScientist #Programming #Coding #100DaysofCode #DEVCommunity #CodeNewbie #DX https://t.co/DQLFIqeKUN https://t.co/whBBpNPjUF",1,6
"x844152803991994368","x1434248554705473538",2021-09-04 20:14:37,"rweekly_live","Function With Special Talent from ‘caret’ package in R — NearZeroVar() #rstats #datascience https://t.co/vcF3Jnic4j",4,5
"x844152803991994368","x1434082431498440705",2021-09-04 09:14:30,"rweekly_live","The quest for fast(er?) row-oriented workflows #rstats #datascience https://t.co/EzqIz7Bywm",3,5
"x844152803991994368","x1434082430944784385",2021-09-04 09:14:30,"rweekly_live","Function With Special Talent from ‘caret’ package in R — NearZeroVar() #rstats #datascience https://t.co/LR0YuWeFpp",6,5
"x844152803991994368","x1434112636233424897",2021-09-04 11:14:31,"rweekly_live","The role of the R community in the Research Software Engineering (RSE) movement useR2021global #rstats #datascience https://t.co/uoe9x79gkI",5,6
"x844152803991994368","x1434037125461204992",2021-09-04 06:14:28,"rweekly_live","Sample Size Calculation and Power Clinical Trials #rstats #datascience https://t.co/WXQ8moMHeh",7,7
"x452355286","x1434245268677935108",2021-09-04 20:01:33,"tcarpenter216","@kjhealy Get #rstats running on it and then I will be impressed 🤣",7,1
"x1416114102091538432","x1434244877617811460",2021-09-04 20:00:00,"PrUkkera","Developer life style

#MachineLearning #dev #DataScience #code #Python #RStats #TensorFlow #JavaScript #ReactJS #GoLang #CloudComputing #Serverless #DataScientist #WomenWhoCode #Programming #Coding #flutter #opensource #DevOps #DEVCommunity #dev #tech
 https://t.co/yLjqO6KmP1",20,37
"x12514782","x1434243680525643776",2021-09-04 19:55:15,"technocrat","#RStats Data is often collected for multiple purposes, so it may be the case that the a portion of the variables that arrive are irrelevant. Wasted data cleansing, spurious correlations, etc. Always ask “what other purposes was the data collected for?”",1,2
"x3917217552","x1434233570890027015",2021-09-04 19:15:04,"KevinClarity","Machine Learning Moves to the Hybrid Cloud - DATAVERSITY

#Machinelearning #100DaysOfCode #Bigdata #100DaysOfMLCode #Python #flutter #cybersecurity #RStats #CodeNewbie #DEVCommunity #RPA #DataScience  https://t.co/CMkekQetPl",8,30
"x3917217552","x1434234236798656516",2021-09-04 19:17:43,"KevinClarity","Building Multi-Cloud Machine Learning Platform using Kubernetes and Kubeflow | by Hamed Saljooghinejad 

#Machinelearning #100DaysOfCode #Bigdata #100DaysOfMLCode #Python #flutter #cybersecurity #RStats #CodeNewbie #DEVCommunity #RPA #DataScience
 https://t.co/Qerd23mh7P",3,12
"x3917217552","x1434234072935682053",2021-09-04 19:17:04,"KevinClarity","The multi-cloud paves the way for AI and ML - Compare the Cloud

#Machinelearning #100DaysOfCode #Bigdata #100DaysOfMLCode #Python #flutter #cybersecurity #RStats #CodeNewbie #DEVCommunity #RPA #DataScience
 https://t.co/ls4WtFq01M",8,20
"x3917217552","x1434240311996387332",2021-09-04 19:41:51,"KevinClarity","Are Neural Networks About to Reinvent Physics? - Issue 78: Atmospheres - Nautilus

#Machinelearning #100DaysOfCode #Bigdata #100DaysOfMLCode #Python #flutter #cybersecurity #RStats #CodeNewbie #DEVCommunity #RPA #DataScience
 https://t.co/1qBYZlcMUK",6,19
"x3917217552","x1434233705237729280",2021-09-04 19:15:36,"KevinClarity","The New Stack, Hybrid Cloud Providers and Machine Learning 

#Machinelearning #100DaysOfCode #Bigdata #100DaysOfMLCode #Python #flutter #cybersecurity #RStats #CodeNewbie #DEVCommunity #RPA #DataScience
 https://t.co/YzAJ5iOGLR",4,22
"x1323552834","x1434237350490644482",2021-09-04 19:30:05,"Udemy_Coupons1","How to Deal With Tough Times | Problem Solving Skills https://t.co/xAgE9ebICv

#MachineLearning. #BigData #Analytics #DataScience #AI #IoT #IIoT #Python #RStats #TensorFlow #Java #JavaScript #ReactJS #CloudComputing #DataScientist #Linux #Programming #Coding #100DaysofCode",0,8
"x1323552834","x1434237456518369282",2021-09-04 19:30:31,"Udemy_Coupons1","31 Startup Business Model for Entrepreneurs
https://t.co/NTJwqkerEF

#MachineLearning. #BigData #Analytics #DataScience #AI #IoT #IIoT #Python #RStats #TensorFlow #Java #JavaScript #ReactJS #CloudComputing #DataScientist #Linux #Programming #Coding #100DaysofCode",1,11
"x1323552834","x1434236626494963716",2021-09-04 19:27:13,"Udemy_Coupons1","Become a Web Designer – HTML &amp; CSS for Beginners
https://t.co/36btq0CeI3

#MachineLearning. #BigData #Analytics #DataScience #AI #IoT #IIoT #Python #RStats #TensorFlow #Java #JavaScript #ReactJS #CloudComputing #DataScientist #Linux #Programming #Coding #100DaysofCode",12,17
"x1323552834","x1434237680188116992",2021-09-04 19:31:24,"Udemy_Coupons1","English language basics for beginners
https://t.co/I7D0MbPeik

#MachineLearning. #BigData #Analytics #DataScience #AI #IoT #IIoT #Python #RStats #TensorFlow #Java #JavaScript #ReactJS #CloudComputing #DataScientist #Linux #Programming #Coding #100DaysofCode",2,8
"x1323552834","x1434163404663664651",2021-09-04 14:36:15,"Udemy_Coupons1","Advanced Foundations of Python Programming | 2021 Training https://t.co/tzFZP2tisz

#MachineLearning. #BigData #Analytics #DataScience #AI #IoT #IIoT #Python #RStats #TensorFlow #Java #JavaScript #ReactJS #CloudComputing #DataScientist #Linux #Programming #Coding #100DaysofCode",34,38
"x1323552834","x1434163023695028225",2021-09-04 14:34:44,"Udemy_Coupons1","Node, Express JS, Angular 12 &amp; Mongo DB web app development https://t.co/pjZJ8dVr67

#MachineLearning. #BigData #Analytics #DataScience #AI #IoT #IIoT #Python #RStats #TensorFlow #Java #JavaScript #ReactJS #CloudComputing #DataScientist #Linux #Programming #Coding #100DaysofCode",1,1
"x1323552834","x1434161687649820678",2021-09-04 14:29:26,"Udemy_Coupons1","100%OFF | Python Complete Course For Python Beginners https://t.co/fxoEGs3UU0

#MachineLearning. #BigData #Analytics #DataScience #AI #IoT #IIoT #Python #RStats #TensorFlow #Java #JavaScript #ReactJS #CloudComputing #DataScientist #Linux #Programming #Coding #100DaysofCode",4,8
"x1323552834","x1434238950978293763",2021-09-04 19:36:27,"Udemy_Coupons1","70+ Exercises – Python Programming – Data Science – NumPy https://t.co/jOKYswmxit

#MachineLearning. #BigData #Analytics #DataScience #AI #IoT #IIoT #Python #RStats #TensorFlow #Java #JavaScript #ReactJS #CloudComputing #DataScientist #Linux #Programming #Coding #100DaysofCode",26,42
"x1323552834","x1434160444495867910",2021-09-04 14:24:30,"Udemy_Coupons1","CSS3 and Bootstrap for Absolute Beginners
https://t.co/ER3CCtFkQP

#MachineLearning. #BigData #Analytics #DataScience #AI #IoT #IIoT #Python #RStats #TensorFlow #Java #JavaScript #ReactJS #CloudComputing #DataScientist #Linux #Programming #Coding #100DaysofCode",4,8
"x1323552834","x1434160174621679626",2021-09-04 14:23:25,"Udemy_Coupons1","Practical Ethical Hacking for Beginners
https://t.co/eT6hQB0Ldz

#MachineLearning. #BigData #Analytics #DataScience #AI #IoT #IIoT #Python #RStats #TensorFlow #Java #JavaScript #ReactJS #CloudComputing #DataScientist #Linux #Programming #Coding #100DaysofCode",5,13
"x1323552834","x1434160325599928332",2021-09-04 14:24:01,"Udemy_Coupons1","Bitcoin For Beginners: How To Earn Bitcoin Online For Free https://t.co/SUt7mlKXJG

#MachineLearning. #BigData #Analytics #DataScience #AI #IoT #IIoT #Python #RStats #TensorFlow #Java #JavaScript #ReactJS #CloudComputing #DataScientist #Linux #Programming #Coding #100DaysofCode",0,8
"x1323552834","x1434238231755857926",2021-09-04 19:33:35,"Udemy_Coupons1","SaaS Marketing, Metrics for Managers and Founders
https://t.co/7cauBrVRuZ

#MachineLearning. #BigData #Analytics #DataScience #AI #IoT #IIoT #Python #RStats #TensorFlow #Java #JavaScript #ReactJS #CloudComputing #DataScientist #Linux #Programming #Coding #100DaysofCode",5,18
"x1323552834","x1434161898694586374",2021-09-04 14:30:16,"Udemy_Coupons1","Social Engineering: Zero to Hero Course
https://t.co/n2tXCy1Wbg

#MachineLearning. #BigData #Analytics #DataScience #AI #IoT #IIoT #Python #RStats #TensorFlow #Java #JavaScript #ReactJS #CloudComputing #DataScientist #Linux #Programming #Coding #100DaysofCode",6,13
"x1323552834","x1434237576030867458",2021-09-04 19:30:59,"Udemy_Coupons1","Learn Basics of Adobe Photoshop CC 2021
https://t.co/TC2nn0kv6I

#MachineLearning. #BigData #Analytics #DataScience #AI #IoT #IIoT #Python #RStats #TensorFlow #Java #JavaScript #ReactJS #CloudComputing #DataScientist #Linux #Programming #Coding #100DaysofCode",3,8
"x1323552834","x1434162073953521666",2021-09-04 14:30:58,"Udemy_Coupons1","Business Fundamentals &amp; Questions to Answer Before Launching https://t.co/3pvZ4kHhSO

#MachineLearning. #BigData #Analytics #DataScience #AI #IoT #IIoT #Python #RStats #TensorFlow #Java #JavaScript #ReactJS #CloudComputing #DataScientist #Linux #Programming #Coding #100DaysofCode",2,10
"x1323552834","x1434162883613634567",2021-09-04 14:34:11,"Udemy_Coupons1","Dieting – Nutrition -Weight Loss Tips for Good Healthy Life https://t.co/51KDsEtDsm

#MachineLearning. #BigData #Analytics #DataScience #AI #IoT #IIoT #Python #RStats #TensorFlow #Java #JavaScript #ReactJS #CloudComputing #DataScientist #Linux #Programming #Coding #100DaysofCode",16,33
"x1323552834","x1434237133099880451",2021-09-04 19:29:14,"Udemy_Coupons1","Intelligence quotient IQ Test Questions and Answers
https://t.co/MdQILgkFsB

#MachineLearning. #BigData #Analytics #DataScience #AI #IoT #IIoT #Python #RStats #TensorFlow #Java #JavaScript #ReactJS #CloudComputing #DataScientist #Linux #Programming #Coding #100DaysofCode",1,4
"x1323552834","x1434161571203276800",2021-09-04 14:28:58,"Udemy_Coupons1","The Ultimate Python 3.9 Programming 2021 Course
https://t.co/8pmpf9EHPi

#MachineLearning. #BigData #Analytics #DataScience #AI #IoT #IIoT #Python #RStats #TensorFlow #Java #JavaScript #ReactJS #CloudComputing #DataScientist #Linux #Programming #Coding #100DaysofCode",4,10
"x1323552834","x1434236761975234563",2021-09-04 19:27:45,"Udemy_Coupons1","Become a Front End Developer – JavaScript
https://t.co/sXVYhhvINl

#MachineLearning. #BigData #Analytics #DataScience #AI #IoT #IIoT #Python #RStats #TensorFlow #Java #JavaScript #ReactJS #CloudComputing #DataScientist #Linux #Programming #Coding #100DaysofCode",8,18
"x1323552834","x1434162546462896128",2021-09-04 14:32:51,"Udemy_Coupons1","CSS Crash Course For Beginners https://t.co/HUEg4JhdPs

#MachineLearning. #BigData #Analytics #DataScience #AI #IoT #IIoT #Python #RStats #TensorFlow #Java #JavaScript #ReactJS #CloudComputing #DataScientist #Linux #Programming #Coding #100DaysofCode",5,10
"x1323552834","x1434238105561747457",2021-09-04 19:33:05,"Udemy_Coupons1","Automate the Boring Stuff with Python Programming
https://t.co/KEqoh65NzA

#MachineLearning. #BigData #Analytics #DataScience #AI #IoT #IIoT #Python #RStats #TensorFlow #Java #JavaScript #ReactJS #CloudComputing #DataScientist #Linux #Programming #Coding #100DaysofCode",5,16
"x1323552834","x1434237785326620678",2021-09-04 19:31:49,"Udemy_Coupons1","Color Correction &amp; Grading with Adobe Premiere Pro 2021 https://t.co/ZV2KkhK5Ke

#MachineLearning. #BigData #Analytics #DataScience #AI #IoT #IIoT #Python #RStats #TensorFlow #Java #JavaScript #ReactJS #CloudComputing #DataScientist #Linux #Programming #Coding #100DaysofCode",3,9
"x1323552834","x1434237995687845895",2021-09-04 19:32:39,"Udemy_Coupons1","Color Grading and Video Editing with Davinci Resolve 17
https://t.co/H4tia3xSqM

#MachineLearning. #BigData #Analytics #DataScience #AI #IoT #IIoT #Python #RStats #TensorFlow #Java #JavaScript #ReactJS #CloudComputing #DataScientist #Linux #Programming #Coding #100DaysofCode",2,8
"x1323552834","x1434238713496838155",2021-09-04 19:35:30,"Udemy_Coupons1","Complete Whatsapp Marketing Course 2021
https://t.co/bSzqbixTIo

#MachineLearning. #BigData #Analytics #DataScience #AI #IoT #IIoT #Python #RStats #TensorFlow #Java #JavaScript #ReactJS #CloudComputing #DataScientist #Linux #Programming #Coding #100DaysofCode",16,28
"x1323552834","x1434238348994957312",2021-09-04 19:34:03,"Udemy_Coupons1","MBA course : Marketing and business Strategy
https://t.co/FJkHm57RTf

#MachineLearning. #BigData #Analytics #DataScience #AI #IoT #IIoT #Python #RStats #TensorFlow #Java #JavaScript #ReactJS #CloudComputing #DataScientist #Linux #Programming #Coding #100DaysofCode",9,21
"x1323552834","x1434160785962459137",2021-09-04 14:25:51,"Udemy_Coupons1","Complete Guide to InVideo Video Creation
https://t.co/5OhgboA9b0

#MachineLearning. #BigData #Analytics #DataScience #AI #IoT #IIoT #Python #RStats #TensorFlow #Java #JavaScript #ReactJS #CloudComputing #DataScientist #Linux #Programming #Coding #100DaysofCode",7,13
"x1323552834","x1434236877754753028",2021-09-04 19:28:13,"Udemy_Coupons1","2021 Armed Services Vocational Aptitude Battery ASVAB tests https://t.co/yTOSAXWmGQ

#MachineLearning. #BigData #Analytics #DataScience #AI #IoT #IIoT #Python #RStats #TensorFlow #Java #JavaScript #ReactJS #CloudComputing #DataScientist #Linux #Programming #Coding #100DaysofCode",2,5
"x1323552834","x1434160585902592000",2021-09-04 14:25:03,"Udemy_Coupons1","Corporate Finance Course https://t.co/Uh1JJ7wwkb

#MachineLearning. #BigData #Analytics #DataScience #AI #IoT #IIoT #Python #RStats #TensorFlow #Java #JavaScript #ReactJS #CloudComputing #DataScientist #Linux #Programming #Coding #100DaysofCode",1,4
"x1323552834","x1434161792754888704",2021-09-04 14:29:51,"Udemy_Coupons1","Applied Python: Tiny Python Projects Fast &amp; Effective Course https://t.co/QyrxOfX5Jd

#MachineLearning. #BigData #Analytics #DataScience #AI #IoT #IIoT #Python #RStats #TensorFlow #Java #JavaScript #ReactJS #CloudComputing #DataScientist #Linux #Programming #Coding #100DaysofCode",5,10
"x1323552834","x1434163283469246468",2021-09-04 14:35:46,"Udemy_Coupons1","Hybrid and Electric Vehicle for Beginners FULL Course 2021 https://t.co/ujU6G3pCL6

#MachineLearning. #BigData #Analytics #DataScience #AI #IoT #IIoT #Python #RStats #TensorFlow #Java #JavaScript #ReactJS #CloudComputing #DataScientist #Linux #Programming #Coding #100DaysofCode",17,35
"x1323552834","x1434238448689373190",2021-09-04 19:34:27,"Udemy_Coupons1","The Lean Startup: Best course on Entrepreneurship
https://t.co/A6ZbJL6a63

#MachineLearning. #BigData #Analytics #DataScience #AI #IoT #IIoT #Python #RStats #TensorFlow #Java #JavaScript #ReactJS #CloudComputing #DataScientist #Linux #Programming #Coding #100DaysofCode",12,27
"x1323552834","x1434162418020720648",2021-09-04 14:32:20,"Udemy_Coupons1","How to Become a Firefighter! https://t.co/uWvNUtJVaF

#MachineLearning. #BigData #Analytics #DataScience #AI #IoT #IIoT #Python #RStats #TensorFlow #Java #JavaScript #ReactJS #CloudComputing #DataScientist #Linux #Programming #Coding #100DaysofCode",6,19
"x1323552834","x1434163145103269890",2021-09-04 14:35:13,"Udemy_Coupons1","Personal Finance Course https://t.co/h8wwyoipX7

#MachineLearning. #BigData #Analytics #DataScience #AI #IoT #IIoT #Python #RStats #TensorFlow #Java #JavaScript #ReactJS #CloudComputing #DataScientist #Linux #Programming #Coding #100DaysofCode",2,0
"x1323552834","x1434158224563900420",2021-09-04 14:15:40,"Udemy_Coupons1","Advanced Brand Management: Branding, Branding Strategy https://t.co/d7ViA73av7

#MachineLearning. #BigData #Analytics #DataScience #AI #IoT #IIoT #Python #RStats #TensorFlow #Java #JavaScript #ReactJS #CloudComputing #DataScientist #Linux #Programming #Coding #100DaysofCode",5,13
"x1323552834","x1434162288429240325",2021-09-04 14:31:49,"Udemy_Coupons1","Habitually Better: Building habits to be your best self!
https://t.co/kj8WOYnABf

#MachineLearning. #BigData #Analytics #DataScience #AI #IoT #IIoT #Python #RStats #TensorFlow #Java #JavaScript #ReactJS #CloudComputing #DataScientist #Linux #Programming #Coding #100DaysofCode",5,11
"x1323552834","x1434238575730692105",2021-09-04 19:34:57,"Udemy_Coupons1","Basics of Python in 2 Hours https://t.co/c9lDh9daoI

#MachineLearning. #BigData #Analytics #DataScience #AI #IoT #IIoT #Python #RStats #TensorFlow #Java #JavaScript #ReactJS #CloudComputing #DataScientist #Linux #Programming #Coding #100DaysofCode",12,29
"x1323552834","x1434163528408223745",2021-09-04 14:36:45,"Udemy_Coupons1","Data science for algorithmic trading
https://t.co/iVjCJA3moC

#MachineLearning. #BigData #Analytics #DataScience #AI #IoT #IIoT #Python #RStats #TensorFlow #Java #JavaScript #ReactJS #CloudComputing #DataScientist #Linux #Programming #Coding #100DaysofCode",9,24
"x1323552834","x1434163630191349763",2021-09-04 14:37:09,"Udemy_Coupons1","100%OFF #UdemyCoupon Code For Today 04/09/2021 Daily Update  https://t.co/gpjiUKVqrL

#MachineLearning. #BigData #Analytics #DataScience #AI #IoT #IIoT #Python #RStats #TensorFlow #Java #JavaScript #ReactJS #CloudComputing #DataScientist #Linux #Programming #Coding #100DaysofCode",10,22
"x1323552834","x1434162177276104704",2021-09-04 14:31:23,"Udemy_Coupons1","How to build your own first Voice Assistant in Python
https://t.co/cdaDUv6jzh

#MachineLearning. #BigData #Analytics #DataScience #AI #IoT #IIoT #Python #RStats #TensorFlow #Java #JavaScript #ReactJS #CloudComputing #DataScientist #Linux #Programming #Coding #100DaysofCode",15,23
"x1323552834","x1434161202263957507",2021-09-04 14:27:30,"Udemy_Coupons1","Google Analytics For Beginners https://t.co/XwOXLpzUrd

#MachineLearning. #BigData #Analytics #DataScience #AI #IoT #IIoT #Python #RStats #TensorFlow #Java #JavaScript #ReactJS #CloudComputing #DataScientist #Linux #Programming #Coding #100DaysofCode",9,22
"x1323552834","x1434237012450676746",2021-09-04 19:28:45,"Udemy_Coupons1","Database Testing MySQL and PostgreSQL practical tests https://t.co/mqnrud7ake

#MachineLearning. #BigData #Analytics #DataScience #AI #IoT #IIoT #Python #RStats #TensorFlow #Java #JavaScript #ReactJS #CloudComputing #DataScientist #Linux #Programming #Coding #100DaysofCode",2,6
"x1323552834","x1434238824012558338",2021-09-04 19:35:57,"Udemy_Coupons1","AI (Artificial Intelligence) for CXOs &amp; Senior Managers
https://t.co/0TJM6MnGdq

#MachineLearning. #BigData #Analytics #DataScience #AI #IoT #IIoT #Python #RStats #TensorFlow #Java #JavaScript #ReactJS #CloudComputing #DataScientist #Linux #Programming #Coding #100DaysofCode",8,30
"x1323552834","x1434161020046557192",2021-09-04 14:26:47,"Udemy_Coupons1","Spatial Analysis &amp; Geospatial Data Science in Python
https://t.co/1Jz9w7SSOZ

#MachineLearning. #BigData #Analytics #DataScience #AI #IoT #IIoT #Python #RStats #TensorFlow #Java #JavaScript #ReactJS #CloudComputing #DataScientist #Linux #Programming #Coding #100DaysofCode",4,11
"x1323552834","x1434237242277511169",2021-09-04 19:29:40,"Udemy_Coupons1","Python Programming Tutorial + Code
https://t.co/5etbnqAp13

#MachineLearning. #BigData #Analytics #DataScience #AI #IoT #IIoT #Python #RStats #TensorFlow #Java #JavaScript #ReactJS #CloudComputing #DataScientist #Linux #Programming #Coding #100DaysofCode",4,12
"x1323552834","x1434237891643850756",2021-09-04 19:32:14,"Udemy_Coupons1","Video Editing with Adobe Premiere Pro CC 2021
https://t.co/6qwvkISraT

#MachineLearning. #BigData #Analytics #DataScience #AI #IoT #IIoT #Python #RStats #TensorFlow #Java #JavaScript #ReactJS #CloudComputing #DataScientist #Linux #Programming #Coding #100DaysofCode",1,7
"x1323552834","x1434161454161317891",2021-09-04 14:28:30,"Udemy_Coupons1","Applied Linux Command Line and Shell Scripting Zero to Elite https://t.co/3xYMztjykg

#MachineLearning. #BigData #Analytics #DataScience #AI #IoT #IIoT #Python #RStats #TensorFlow #Java #JavaScript #ReactJS #CloudComputing #DataScientist #Linux #Programming #Coding #100DaysofCode",5,12
"x1323552834","x1434162763216138243",2021-09-04 14:33:42,"Udemy_Coupons1","DevOps Foundation Course https://t.co/uZRTNxOjsU

#MachineLearning. #BigData #Analytics #DataScience #AI #IoT #IIoT #Python #RStats #TensorFlow #Java #JavaScript #ReactJS #CloudComputing #DataScientist #Linux #Programming #Coding #100DaysofCode",7,12
"x1323552834","x1434158059996303365",2021-09-04 14:15:01,"Udemy_Coupons1","Introduction to Forex- learn to trade forex by yourself
https://t.co/7EqXd2WjX7

#MachineLearning. #BigData #Analytics #DataScience #AI #IoT #IIoT #Python #RStats #TensorFlow #Java #JavaScript #ReactJS #CloudComputing #DataScientist #Linux #Programming #Coding #100DaysofCode",3,15
"x1323552834","x1434162656202706947",2021-09-04 14:33:17,"Udemy_Coupons1","Cyber Security Threat Intelligence Researcher Preview
https://t.co/1rj2lIXoEZ

#MachineLearning. #BigData #Analytics #DataScience #AI #IoT #IIoT #Python #RStats #TensorFlow #Java #JavaScript #ReactJS #CloudComputing #DataScientist #Linux #Programming #Coding #100DaysofCode",5,11
"x18238982","x1434146706506063877",2021-09-04 13:29:54,"DerFredo","finnstats posted on R-bloggers: Sample Size Calculation and Power Clinical Trials #rstats https://t.co/h8ShauZEws",0,2
"x18238982","x1433995705304158208",2021-09-04 03:29:53,"DerFredo","R on https://t.co/VOHPMqApBQ posted on R-bloggers: Covid Trajectories #rstats https://t.co/dSj0bjYJ57",0,1
"x18238982","x1434237215979229184",2021-09-04 19:29:33,"DerFredo","R on Dominic Royé posted on R-bloggers: Climate circles #rstats https://t.co/D8PsjnaqBO",1,1
"x18238982","x1434222009286860809",2021-09-04 18:29:08,"DerFredo","Econometrics and Free Software posted on R-bloggers: The quest for fast(er?) row-oriented workflows #rstats https://t.co/Bh7O2RohMA",0,1
"x18238982","x1434192022508822531",2021-09-04 16:29:58,"DerFredo","XIAOTONG DING posted on R-bloggers: Function With Special Talent from ‘caret’ package in R — NearZeroVar() #rstats https://t.co/87weAC62rI",0,1
"x1332574629827727362","x1434235987454926849",2021-09-04 19:24:40,"AliAkbo42682095","#100DaysOfMLCode #Python #javascript #Nodejs #Serverless #womenwhocode #cybersecurity #RStats #CodeNewbie #DataScience #DEVCommunityCheck out new work on my @Behance profile: ""no mater what age i will always need you mom"" https://t.co/orUWy1phVM",1,10
"x738752276836306944","x1434234422497325058",2021-09-04 19:18:27,"PDH_SciTechNews","#Coding Coding the emotions that anti-tobacco ads evoke | Penn Today - Penn Today https://t.co/dlm2PA25WY #AI #100DaysOfCode #FemTech #AR #ML #Analytics #Python #Rstats #Reactjs #IoT #IIoT #NLP #Linux #serverless #flutter #javascript #TensorFlow  #Cloud #BigData  #RPA",10,20
"x738752276836306944","x1434234426909671428",2021-09-04 19:18:28,"PDH_SciTechNews","#Coding Students skip college - Axios https://t.co/ntxMcVF70M #AI #100DaysOfCode #FemTech #AR #ML #Analytics #Python #Rstats #Reactjs #IoT #IIoT #NLP #Linux #serverless #flutter #javascript #TensorFlow  #Cloud #BigData  #RPA",11,24
"x422850687","x1434232568518529024",2021-09-04 19:11:05,"haifabmes","Type I error vs Type II error as simple as you never imagine 😅😅
#statistics #datascience #rstats #python https://t.co/wCudIvsHoY",196,56
"x1403319086172545024","x1433945795439570947",2021-09-04 00:11:33,"DataPosts","✏️ ggplot Wizardry Hands-On - Cédric Scherer

🔗 https://t.co/vaUmOtr67n 

🗣 Cédric Scherer @CedScherer
#rstats #datascience #datamining #machinelearning #statistics https://t.co/piDMoZa8Sa",96,22
"x1403319086172545024","x1434230914977083393",2021-09-04 19:04:31,"DataPosts","✏️ Climate circles - Dominic Royé

🔗 https://t.co/EmdX4QnGK4 

🗣 R-bloggers @Rbloggers 
#rstats #datascience #datamining #machinelearning #statistics https://t.co/QPjBHywu0U",6,7
"x867857724670857217","x1434230623867219968",2021-09-04 19:03:22,"rstatsdata","#rdata #rstats: Estimation for a non-homogeneous Poisson process - https://t.co/b6B3DhLT3L",1,1
"x1062020126277599233","x1434229944901672961",2021-09-04 19:00:40,"Richard_S_Hanna","Starting to make a new #rstats package... and got the first, biggest, most important part of it done first. Big things to come. #datascience #gritty @GrittyNHL https://t.co/OAVNSY5L9X",3,3
"x371974097","x1434228809788706817",2021-09-04 18:56:09,"theRcast","A big update to the  {shinycal} #shiny app has just landed!  In v0.5 you can select your preferred timezone 🕒 , all powered by @dvaughan32 's {clock} and @dreamRs_fr 's {shinyWidgets} #rstats packages 📅 https://t.co/1UnqtJ0w8N 

Code on  https://t.co/C5k4naFqPg 👍 https://t.co/9e0cX8ZnQw",4,4
"x144592995","x1434159796429729796",2021-09-04 14:21:55,"Rbloggers","Confidence and prediction intervals explained… (with a Shiny app!)  {https://t.co/di0Ii6oAze} #rstats #DataScience",65,23
"x144592995","x1434227757446311938",2021-09-04 18:51:58,"Rbloggers","The Simple Logic Behind the $widehateta$ of the OLS  {https://t.co/TH3HZOvtCQ} #rstats #DataScience",5,2
"x144592995","x1434222734700171265",2021-09-04 18:32:01,"Rbloggers","Climate circles  {https://t.co/d4c7tEoX8R} #rstats #DataScience",12,7
"x144592995","x1434184952308973575",2021-09-04 16:01:53,"Rbloggers","Function With Special Talent from ‘caret’ package in R — NearZeroVar()  {https://t.co/HVO5GkmKAi} #rstats #DataScience",7,4
"x144592995","x1434134592668278787",2021-09-04 12:41:46,"Rbloggers","Sample Size Calculation and Power Clinical Trials  {https://t.co/5PdaGDF528} #rstats #DataScience",9,4
"x144592995","x1433986141917782023",2021-09-04 02:51:53,"Rbloggers","YAPOEH! (Yet another post on error handling)  {https://t.co/TZ0mO1Vml0} #rstats #DataScience",7,3
"x144592995","x1434226521397469187",2021-09-04 18:47:03,"Rbloggers","Experimenting with machine learning in R with tidymodels and the Kaggle titanic dataset  {https://t.co/kLG4yEKyPu} #rstats #DataScience",37,8
"x144592995","x1434206363140476928",2021-09-04 17:26:57,"Rbloggers","The quest for fast(er?) row-oriented workflows  {https://t.co/4sWfMdu8ys} #rstats #DataScience",8,4
"x144592995","x1434227734901936143",2021-09-04 18:51:53,"Rbloggers","Double Descent Part I: Sample-wise Non-monotonicity  {https://t.co/uXu78l7F2N} #rstats #DataScience",2,2
"x144592995","x1433974826062991360",2021-09-04 02:06:55,"Rbloggers","Covid Trajectories  {https://t.co/QopdjsSxGZ} #rstats #DataScience",6,3
"x144592995","x1433986175459598338",2021-09-04 02:52:01,"Rbloggers","Teaching with zoom breakout-rooms and the learnr package  {https://t.co/D4q2MqZ0N8} #rstats #DataScience",22,6
"x1221835975233605632","x1434226692592177159",2021-09-04 18:47:44,"CXPORTAL1","HOW PAYMENTS ARE CHANGING 
#infographic #DataScientist #onlineshopping #BigData #payments  #AI #DataScience #paymentsolutions  #IIoT #RStats #TensorFlow #JavaScript #ReactJS #DigitalTransformation #DevOps #100DaysofCode #DataAnalytics https://t.co/NRIwDjO3SM",5,24
"x287836809","x1434225729416335361",2021-09-04 18:43:55,"dataclaudius","Climate circles via #rbloggers #rstats #datascience https://t.co/Z1YEZ7cdzJ",0,1
"x287836809","x1434195486383251457",2021-09-04 16:43:44,"dataclaudius","Function With Special Talent from ‘caret’ package in R — NearZeroVar() via #rbloggers #rstats #datascience https://t.co/DNYf32rUEd",0,1
"x287836809","x1434210599039344643",2021-09-04 17:43:47,"dataclaudius","The quest for fast(er?) row-oriented workflows via #rbloggers #rstats #datascience https://t.co/gdUt14vyVs",1,2
"x287836809","x1434148771462631426",2021-09-04 13:38:06,"dataclaudius","Sample Size Calculation and Power Clinical Trials via #rbloggers #rstats #datascience https://t.co/MWCHC69DOH",1,1
"x287836809","x1433976565851901952",2021-09-04 02:13:49,"dataclaudius","Covid Trajectories via #rbloggers #rstats #datascience https://t.co/reuV3bwQrl",0,2
"x2857565356","x1434130924925562882",2021-09-04 12:27:12,"stringfestdata","#Rstats tip:  scatterplot: scatterplots with boxplots (”car”) More: https://t.co/CDZbnhZpy7",0,2
"x2857565356","x1434222526868172813",2021-09-04 18:31:11,"stringfestdata","#Rstats tip:  loess(), lowess() - scatter plot smoothing More: https://t.co/CDZbnhZpy7",0,2
"x15433622","x1434220915978608640",2021-09-04 18:24:47,"nicoleradziwill","Dear #rstats community: for those who occasionally or routinely test to see if a sample came from a particular distribution, WHY are you motivated to do that/WHAT VALUE does it provide? [trying to sample the solution space of meaningfulness here. i know me, but want to know you]",5,3
"x1241814552","x1434216436076097538",2021-09-04 18:06:59,"thomas_mock","Playing around with some inline indicators for Wins and Losses in {gt} w/ #RStats 

Still hacking away at handling some edge-cases, and will post a code for a function once I get there. https://t.co/ExhhdqtRk7",82,4
"x856527968","x1434215674100994049",2021-09-04 18:03:57,"_icedrum","What Kevin O'Leary Just Said About #Ethereum  and Why It's Headed to $40,000 https://t.co/uWQelw5MSW #BigData #Analytics #DataScience #IoT #IIoT #PyTorch #Python #RStats #TensorFlow #JavaScript #ReactJS #GoLang #CloudComputing  #100DaysofCode $btc $link $eth $ocean $bch $aave",7,16
"x4263007693","x1434199647657005059",2021-09-04 17:00:16,"gp_pulipaka","Four #DeepLearning Papers to Read in September 2021. #BigData #Analytics #DataScience #AI #IoT #IIoT #PyTorch #Python #RStats #TensorFlow #Java #JavaScript #ReactJS #CloudComputing #Serverless #DataScientist #Linux #Programming #Coding #100DaysofCode 
https://t.co/4JlT2Qm0b3 https://t.co/rMkqWoUeMR",43,58
"x4263007693","x1433955873517342723",2021-09-04 00:51:36,"gp_pulipaka","The Top Robotic Process Automation Books You Need to Read. #BigData #Analytics #DataScience #RPATech #IoT #IIoT #Python #RStats #TensorFlow #JavaScript #ReactJS #CloudComputing #Serverless #DataScientist #Linux #Books #Programming #Coding #100DaysofCode 
https://t.co/08ldKnWAx1 https://t.co/eMZsaBb8t8",52,70
"x4263007693","x1433972341080473607",2021-09-04 01:57:02,"gp_pulipaka","#AI Best: #BigData Appliances for #InMemoryComputing. #Analytics #DataScience #MachineLearning #IoT #IIoT #Python #RStats #TensorFlow #Java #JavaScript #ReactJS #CloudComputing #Serverless #Linux #Books #Mathematics #Programming #Coding #100DaysofCode 
https://t.co/o2rJCibexc https://t.co/wj90mFah8J",25,48
"x4263007693","x1433986437746151427",2021-09-04 02:53:03,"gp_pulipaka","Top Books: Best Books on Linear Algebra. #BigData #Analytics #DataScience #IoT #IIoT #PyTorch #Python #RStats #TensorFlow #Java #JavaScript #ReactJS #CloudComputing #Serverless #DataScientist #Linux #Mathematics #Books #Programming #Coding #100DaysofCode 
https://t.co/K5B3hMevsr https://t.co/cYDQ3nF0bz",117,80
"x4263007693","x1433942911607996417",2021-09-04 00:00:06,"gp_pulipaka","The Cocktail Party Problem: Why Voice Tech Isn’t Truly Useful Yet. #BigData #Analytics #DataScience #AI #MachineLearning #IoT #IIoT #Python #RStats #TensorFlow #JavaScript #ReactJS #Serverless #DataScientist #Linux #Programming #Coding #100DaysofCode 
https://t.co/2DUgYm16DK",13,37
"x4263007693","x1434183737831563266",2021-09-04 15:57:03,"gp_pulipaka","AI Best: Top #HealthTech Influencers Ft. @gp_pulipaka by @Onalytica. #BigData #Analytics #DataScience #AI #MachineLearning #IoT #IIoT #Python #RStats #TensorFlow #JavaScript #ReactJS #Serverless #DataScientist #Linux #Programming #Coding #100DaysofCode 
https://t.co/8etpwmmdV5 https://t.co/EtTNFKnEzu",29,39
"x4263007693","x1433982918540603393",2021-09-04 02:39:04,"gp_pulipaka","A Beginner's Guide to Boltzmann Machine. #BigData #Analytics #DataScience #AI #MachineLearning #IoT #IIoT #Python #RStats #TensorFlow #Java #JavaScript #ReactJS #GoLang #CloudComputing #Serverless #DataScientist #Linux #Programming #Coding #100DaysofCode 
https://t.co/UKEshaJEVP https://t.co/RGAqACocyl",56,74
"x4263007693","x1433966302524317697",2021-09-04 01:33:02,"gp_pulipaka","Stochastic Optimization for Large-Scale Machine Learning. #BigData #Analytics #DataScience #IoT #IIoT #Python #RStats #TensorFlow #Java #JavaScript #ReactJS #CloudComputing #Serverless #DataScientist #Linux #Books #Programming #Coding #100DaysofCode 
https://t.co/cFuRNYbeyK https://t.co/HIVAWkKezJ",31,55
"x4263007693","x1434214830265745413",2021-09-04 18:00:36,"gp_pulipaka","5 #Books About #QuantumComputing to Start from Scratch. #BigData #Analytics #DataScience #AI #MachineLearning #IoT #IIoT #Python #RStats #TensorFlow #JavaScript #ReactJS #CloudComputing #Serverless #DataScientist #Linux #Programming #Coding #100DaysofCode
https://t.co/xa9wXFSHMx https://t.co/JSX6pewOSU",53,38
"x4263007693","x1433962796899717122",2021-09-04 01:19:07,"gp_pulipaka","Introducing: #Azure Sentinel Data Exploration Toolset (ASDET). #BigData #Analytics #DataScience #AI #MachineLearning #IoT #IIoT #Python #RStats #TensorFlow #JavaScript #ReactJS #Serverless #DataScientist #Linux #Programming #Coding #100DaysofCode 
https://t.co/GPFxjNLI85 https://t.co/cC9L7HMtPY",17,44
"x4263007693","x1434204369776414721",2021-09-04 17:19:02,"gp_pulipaka","Disastrous Tweets Classification using BERT and #NLProc. #BigData #Analytics #DataScience #AI #MachineLearning #IoT #IIoT #Python #RStats #TensorFlow #JavaScript #ReactJS #CloudComputing #Serverless #DataScientist #Linux #Programming #Coding #100DaysofCode
https://t.co/WJjNtK1S3J https://t.co/LfvlvndX8p",28,45
"x4263007693","x1434210167000870913",2021-09-04 17:42:04,"gp_pulipaka","12 Clustering #Algorithms With Python #Programming Language. #BigData #Analytics #DataScience #AI #MachineLearning #IoT #IIoT #Python #RStats #TensorFlow #Java #JavaScript #ReactJS #CloudComputing #Serverless #DataScientist #Linux #Coding #100DaysofCode 
https://t.co/i3TX5Nqi1J https://t.co/xmw5pKxWmP",69,70
"x4263007693","x1433942918906138633",2021-09-04 00:00:07,"gp_pulipaka","Top 4 #Python and Data Science IDEs for 2021. #BigData #Analytics #DataScience #AI #MachineLearning #IoT #IIoT #PyTorch #RStats #TensorFlow #Java #JavaScript #ReactJS #CloudComputing #Serverless #DataScientist #Linux #Programming #Coding #100DaysofCode 
https://t.co/y7151Pa554 https://t.co/pVrXhpb7AD",53,78
"x4263007693","x1433955736762134528",2021-09-04 00:51:03,"gp_pulipaka","5 Robotic Process Automation (RPA) Use Cases in Banking and Finance. #BigData #Analytics #DataScience #AI #MachineLearning #IoT #IIoT #Python #RStats #TensorFlow #JavaScript #ReactJS #Serverless #DataScientist #Linux #Programming #Coding #100DaysofCode 
https://t.co/cbDkFezV2R https://t.co/WJ0R0XOr7Y",24,43
"x1053697748321501184","x1434178223835738112",2021-09-04 15:35:08,"PinakiLaskar","Python Remains most Popular Programming Language.
#python #programming #datascience #bigdata #machinelearning #coding #statistics #AI #100DaysOfCode #IoT #DataScientist #DataAnalytics #DataSecurity #linux #Serverless #Java #RStats #reactjs #CloudComputing #IIoT #innovation #robot https://t.co/derX0KfX2u",6,16
"x1053697748321501184","x1434180944798179339",2021-09-04 15:45:57,"PinakiLaskar","❤️ Python ❤️ C++ ❤️
#MachineLearning #BigData #Analytics #DataScience #IoT #IIoT #PyTorch #Python #RStats #TensorFlow #Java #JavaScript #ReactJS #GoLang #CloudComputing #Serverless #DataScientist #Linux #Maths #Programming #Coding #100DaysofCode #futureofwork #selfdrivingcars #AI https://t.co/1mnmNw0ctT",3,9
"x1053697748321501184","x1434214746820005888",2021-09-04 18:00:16,"PinakiLaskar","Differentiable sampling of molecular geometries with uncertainty-based adversarial attacks
#BigData #Analytics #DataScience #IoT #IIoT #RStats #JavaScript #ReactJS #CloudComputing #Serverless #Linux #Programming #Coding #Innovation #MachineLearning #selfdrivingcars #devcommunity https://t.co/FVEid82DZ7",2,6
"x1053697748321501184","x1434000162616053764",2021-09-04 03:47:35,"PinakiLaskar","Why DriverMonitoring is to become mandatory in commercial #autonomousvehicles?
https://t.co/hJRK8sp7Dm

#selfdrivingcars #smartcity #mobility #MachineLearning #BigData #Analytics #DataScience #IoT #IIoT #Python #RStats #ReactJS #CloudComputing #Serverless #Linux #Math #AI #CX #5G",3,8
"x1053697748321501184","x1434184386048446465",2021-09-04 15:59:38,"PinakiLaskar","Different types of Regression Analysis using #Python

#BigData #DataMining #DataScience #Statistics #MachineLearning #DataScientist #artificialintelligence #regression #correlation #hypothesis #Analytics #IoT #IIoT #PyTorch #RStats #TensorFlow #Java #JavaScript #5g #DevOps #math https://t.co/QqjvnEscWS",3,10
"x1053697748321501184","x1434188848418865154",2021-09-04 16:17:22,"PinakiLaskar","Kernel Tricks to separate class.
#MachineLearning #BigData #Analytics #DataScience #IoT #IIoT #cx #Python #RStats #TensorFlow #Java #JavaScript #ReactJS #CloudComputing #Serverless #DataScientist #Linux #Maths #Programming #Coding #100DaysofCode #futureofwork #selfdrivingcars #AI https://t.co/tbLbvRBs6g",7,24
"x1053697748321501184","x1434189109942046721",2021-09-04 16:18:24,"PinakiLaskar","Data Scientist Activities
#BigData #Analytics #DataScience #IoT #IIoT #RStats #JavaScript #ReactJS #CloudComputing #Serverless #Linux #Programming #Coding #Innovation #MachineLearning #selfdrivingcars #devcommunity #100DaysofCode #AI #autonomousvehicles #fashiontech #digital #cx https://t.co/miQ9ePbPnj",15,23
"x1053697748321501184","x1434179633025413121",2021-09-04 15:40:44,"PinakiLaskar","Optimization #Algorithms.

#BigData #Analytics #DataScience #IoT #IIoT #RStats #JavaScript #ReactJS #CloudComputing #Serverless #Linux #Programming #Coding #Innovation #MachineLearning #selfdrivingcars #devcommunity #100DaysofCode #AI #autonomousvehicles #fashiontech #CodeNewbie https://t.co/Pxt96au6WQ",2,11
"x1053697748321501184","x1434179153276796931",2021-09-04 15:38:50,"PinakiLaskar","Multiplying Matrices Without Multiplying.
#BigData #Analytics #DataScience #IoT #IIoT #RStats #JavaScript #ReactJS #CloudComputing #Serverless #Linux #Programming #Coding #Innovation #MachineLearning #selfdrivingcars #devcommunity #100DaysofCode #AI #autonomousvehicles #math #cx https://t.co/9wmqyrzw9f",4,12
"x554757120","x1434214692659073032",2021-09-04 18:00:03,"EdKwedar","A Gentle Introduction To Hessian Matrices. #BigData #Analytics #DataScience #AI #MachineLearning #IIoT #Python #RStats #TensorFlow #JavaScript #ReactJS #Serverless #DataScientist #Linux #Mathematics #Programming #Coding #100DaysofCode via @gp_pulipaka | https://t.co/r1VUpoZCU4 https://t.co/vWFHnyIUS1",30,39
"x554757120","x1434154438336421889",2021-09-04 14:00:38,"EdKwedar","A Short Introduction to #MachineLearning | #BigData #Analytics #DataScience #AI #IoT #IIoT #PyTorch #Python #RStats #TensorFlow #Java #JavaScript #ReactJS #GoLang #CloudComputing #DataScientist #Linux #Programming #Coding #100DaysofCode via @gp_pulipaka | https://t.co/y7G5ep9Kcf https://t.co/zaW8X2WfeL",30,50
"x1323627013949837312","x1434214430049542148",2021-09-04 17:59:01,"covidcat4","CovidCat [ 2021-09-03 ]:
 
Evolució de les incidències acumulades a 14 dies per 100K hab. en els últims 14 dies
 
Consulta les dades i els mapes per Àrea Bàsica de Salut: https://t.co/6RO7H0Sr05
 
#CovidCat #COVID19 #rstats https://t.co/KeBT4ccfi6",0,1
"x1135188886592806913","x1434212140831809545",2021-09-04 17:49:55,"TrueInd39574848","@ManeezaPredicts #Sanskrit language has a capability like an object oriented language like #RStats or #Python 

snake
snake %&gt;% enemy = #eagle
snake %&gt;% enemy %&gt;% master = #vishnu
OR
snake
snake.enemy = eagle
snake.enemy.master = vishnu
#marathi #Maharashtra #India #मराठी #महाराष्ट्र #भारत",2,0
"x1288412821898706944","x1434211525825159175",2021-09-04 17:47:28,"nithinnithu_m","Can someone post good reference to using {blastula} and {rmarkdown} to send template emails using Gmail?
#RStats #rmarkdown",1,3
"x1288412821898706944","x1434170545298296838",2021-09-04 15:04:38,"nithinnithu_m","There is a package in R that we can use to set preferences for using certain functions when there are multiple occurence of same function names. For example, dplyr::select tends to be overridden by MARS::select. Any help?
#RStats #EconTwitter",3,3
"x926925155728752641","x1434211454014611460",2021-09-04 17:47:11,"jeffreymgirard","Looking to admit 1-2 PhD students to @UnivOfKansas for Fall 2022  to Clinical and/or Quantitative #Psychology. We use interdisciplinary methods to assess and study emotional and interpersonal functioning in healthy and clinical populations. #DataScience #rstats #OpenScience https://t.co/PYP7POqo4L",29,26
"x1109544277196054533","x1434147385970618372",2021-09-04 13:32:36,"AI_Miami","National #Cybersecurity Virtual Career Fair on Sep 17, 9-1pm PT. || #100DaysOfCode #AI #Analytics #AR #ArtificialIntelligence #BigData #Cloud #Coding #Data #DataScience #Flutter #MachineLearning #ML #NLP #NodeJS #Python #RStats #Tech #VR #WomenWhoCode https://t.co/XgMGoFIQy7 https://t.co/bn43yJmCuW",8,31
"x1109544277196054533","x1434158301873274887",2021-09-04 14:15:59,"AI_Miami","#Career: Engineer the Future of Defense at @BoozAllen! || #100DaysOfCode #AI #Analytics #AR #ArtificialIntelligence #BigData #Cloud #Coding #Data #DataScience #DataViz #Flutter #MachineLearning #ML #NLP #NodeJS #Python #RStats #Tech #VR #WomenWhoCode https://t.co/TqabkO1qwl https://t.co/uNnDKT2R2r",8,32
"x1109544277196054533","x1434210674331328517",2021-09-04 17:44:05,"AI_Miami","@Strat_AI @BoozAllen #Career: Engineer the Future of Defense at @BoozAllen! 🙃

#100DaysOfCode #AI #Analytics #AR #ArtificialIntelligence #BigData #Cloud #Coding #Data #DataScience #DataViz #Flutter #MachineLearning #ML #NLP #NodeJS #Python #RStats #Tech #VR #WomenWhoCode

https://t.co/XnaLKE1I9e https://t.co/YP4MmIT22Y",12,24
"x1233539870","x1434209580343611397",2021-09-04 17:39:44,"najlabio","#RStats https://t.co/gTLAGF9ius",19,5
"x878581678121172992","x1434205846360051716",2021-09-04 17:24:54,"aeromobix","Advanced Foundations of Python Programming | 2021 Training https://t.co/Vw7Jknyr87

#MachineLearning. #BigData #Analytics #DataScience #AI #IoT #IIoT #Python #RStats #TensorFlow #Java #JavaScript #ReactJS #CloudComputing #DataScientist #Linux #Programming #Coding #100DaysofCode",9,21
"x881530736","x1434204501892734978",2021-09-04 17:19:34,"RLadiesSF","This Thursday!

 We are very excited to have @LittleMissData!

📺 Join us on Sept 9th at 4pm PT

🔗Register here: https://t.co/YWiA7KsZhk

#datascience #dataviz  #rstats #rladies #DataAnalytics #pyladies #wsds https://t.co/xC6zzhwCke",8,6
"x1595684678","x1434203390616145922",2021-09-04 17:15:09,"FutureTechAMS","Helpful: Python libraries and frameworks

#Analytics #AI #Rstats #Reactjs #MachineLearning #BigData  #DataScience #Linux #Serverless #SelfDrivingCars #IoT #IIoT #flutter #DevCommunity #WomenWhoCode #SmartCity #EmergingTech #100DaysOfCode https://t.co/FC87smKwPn",13,30
"x1317192998023811073","x1434201002496909316",2021-09-04 17:05:39,"wilberth_crc","Hi #SQL friends: How would you approximate the code in the course to the simplicity we use in R?. I ask because we can query from RStudio and translate the code into SQL -if needed- with show_query() for most of its equivalencies, or run SQL code within our IDE. #rstats https://t.co/p1N6yKBN2H",3,1
"x1058010493187702784","x1434198139943198723",2021-09-04 16:54:17,"JiffyTweeting","Hey #rstats, @MontanaKayLara and I are starting up an R centered data science seminar for neuro and cell bio graduate students to teach data analysis skills and be a resource for those doing bioinformatic analyses. Anyone have a syllabus they've written for a similar course?",1,3
"x1300242863263870976","x1434189260404318213",2021-09-04 16:19:00,"CodingPseudo","Python Certification for start career in ML &amp; Data science

https://t.co/SGzS42ABzv

#udemy100off #DeepLearning #Datavisualization #Analytics  #computing  #DataScience #AI #MachineLearning #IoT #Python #RStats #CloudComputing #Serverless #Coding #100DaysofCode #100DaysOfMLCode https://t.co/kxUu0Ump0u",9,13
"x1300242863263870976","x1434197245109235718",2021-09-04 16:50:43,"CodingPseudo","Natural Language Processing:Concept along with Case Study

https://t.co/sNDUpY7UK4

#nlpコーチング #DeepLearning #Analytics #DataScience #AI #MachineLearning #IoT #IIoT #Python #RStats #CloudComputing #Serverless  #Programming #Coding #100DaysofCode #100DaysOfMLCode #udemy100off https://t.co/xBl4TuCu0i",8,17
"x1300242863263870976","x1434191952346447880",2021-09-04 16:29:42,"CodingPseudo","Welcome to Artificial Intelligence !

https://t.co/ygfbX8Lbk8

#artificial #DeepLearning #Datavisualization #Analytics  #computing  #DataScience #AI #MachineLearning #IoT #Python #RStats #CloudComputing #udemy100off #Serverless #Coding #100DaysofCode #100DaysOfMLCode https://t.co/SBFVVNPKl1",18,32
"x1300242863263870976","x1434194654719668225",2021-09-04 16:40:26,"CodingPseudo","Learn Machine Learning algorithms, softwares, deep learning

https://t.co/2tJLerdpWw

#DeepLearning #Analytics #DataScience #AI #MachineLearning #IoT #IIoT #Python #RStats #CloudComputing #Serverless #Linux #Programming #Coding #100DaysofCode #100DaysOfMLCode #udemy100off https://t.co/RgFYpDyKwT",15,28
"x1150225184604872704","x1434195592536735746",2021-09-04 16:44:09,"AIinclusive","🚨Scholarship Alert🚨

We partnered again with @rfortherest to offer one scholarship for their R in 3 Months program.

✍️Apply now! https://t.co/GBjvlNNNQq

🚀 Pls share so we can reach more people 

#rstats #datascience #scholarship #community  #rladies #dataanalytics #giveback https://t.co/6PMWzrh8vw",28,23
"x2872535697","x1434194056133980163",2021-09-04 16:38:03,"brodriguesco","in my last blog post I task about what I perceive is a trade off between human readable, but slow running code, and cryptic but very fast running code in the #RStats programming language. is this trade-off real? is this something that gets studied in CS? or am l hallucinating?",8,3
"x2872535697","x1434076568649969665",2021-09-04 08:51:12,"brodriguesco","New blog post: The quest for fast(er?) row-oriented workflows

https://t.co/sKwHd6Lcja

#RStats https://t.co/o5VXcFeRzU",65,13
"x737142202481016832","x1434127800848445441",2021-09-04 12:14:47,"chidambara09","#DemiMoore https://t.co/jwx0JLLJ0C 

#SOciaLmediA
#100DaysOfCode #Bigdata #WomenWhoCode #Python #flutter #cybersecurity #RStats #CodeNewbie #DEVCommunity #RPA #DataScience #business #AI #iioT #teChnology #MACHiNELearning #healthCare #teCh #CX #FRENCHteCh #finServ #cryptocurrency",5,18
"x737142202481016832","x1433969929254944772",2021-09-04 01:47:27,"chidambara09","#Startups Join #Europe’s #Fintech 
 https://t.co/m86prDbwWJ
#SOciaLmediA
#100DaysOfCode #Bigdata #WomenWhoCode #Python #flutter #cybersecurity #RStats #CodeNewbie #USA #RPA #DataScience #business #AI #iioT #teChnology #MACHiNELearning #healthCare #CX #FRENCHteCh #finServ #cryptO",8,26
"x737142202481016832","x1433969392723759106",2021-09-04 01:45:19,"chidambara09","#biometrics 
#healthcare 
#investment 
 https://t.co/JYL4dlcV38 
#SOciaLmediA
#100DaysOfCode #Bigdata #WomenWhoCode #Python #flutter #cybersecurity #RStats #CodeNewbie #DEVCommunity #RPA #DataScience #business #AI #iioT #teChnology #MACHiNELearning #teCh #CX #FRENCHteCh #finServ",3,5
"x737142202481016832","x1433982060754915328",2021-09-04 02:35:40,"chidambara09","#ABBA https://t.co/xsrhHU2RZG 
#SOciaLmediA
#100DaysOfCode #Bigdata #WomenWhoCode #Python #flutter #cybersecurity #RStats #CodeNewbie #DEVCommunity #RPA #DataScience #business #AI #iioT #teChnology #MACHiNELearning #healthCare #teCh #CX #FRENCHteCh #finServ #cryptocurrency #USA",5,14
"x737142202481016832","x1433980899356332033",2021-09-04 02:31:03,"chidambara09","#California #HEALTHCare https://t.co/lT4LQDdqKx
#USA

#SOciaLmediA
#100DaysOfCode #Bigdata #WomenWhoCode #Python #flutter #cybersecurity #RStats #CodeNewbie #DEVCommunity #RPA #DataScience #business #AI #iioT #teChnology #MACHiNELearning #healthCare #teCh #CX #FRENCHteCh #finServ",2,11
"x737142202481016832","x1434022508643053569",2021-09-04 05:16:23,"chidambara09","#MukeshAmbani 
#busineSs
https://t.co/3llF46Eu6F 
#SOciaLmediA
#100DaysOfCode #Bigdata #WomenWhoCode #Python #flutter #cybersecurity #RStats #CodeNewbie #DEVCommunity #RPA #DataScience #business #AI #iioT #teChnology #MACHiNELearning #healthCare #teCh #CX #FRENCHteCh #finServ #Uk",3,17
"x737142202481016832","x1433982266506563589",2021-09-04 02:36:29,"chidambara09","#HaileyBieber https://t.co/HXMOfHMgid
#SOciaLmediA
#100DaysOfCode #Bigdata #WomenWhoCode #Python #flutter #cybersecurity #RStats #CodeNewbie #DEVCommunity #RPA #DataScience #business #AI #iioT #teChnology #MACHiNELearning #healthCare #teCh #CX #FRENCHteCh #finServ #cryptocurrency",3,7
"x737142202481016832","x1434070247380639751",2021-09-04 08:26:05,"chidambara09","#KaleyCuoco 
#Karl https://t.co/CXrJDqLaFW
#SOciaLmediA
#100DaysOfCode #Bigdata #WomenWhoCode #Python #flutter #cybersecurity #RStats #CodeNewbie #DEVCommunity #RPA #DataScience #business #AI #iioT #teChnology #MACHiNELearning #healthCare #teCh #CX #FRENCHteCh #finServ #cryptoArt",8,15
"x737142202481016832","x1434128504052875268",2021-09-04 12:17:34,"chidambara09","#ScoutWillis https://t.co/7Km55invGF 
#SOciaLmediA
#100DaysOfCode #Bigdata #WomenWhoCode #Python #flutter #cybersecurity #RStats #CodeNewbie #DEVCommunity #RPA #DataScience #business #AI #iioT #teChnology #MACHiNELearning #healthCare #teCh #CX #FRENCHteCh #finServ #cryptocurrency",5,17
"x737142202481016832","x1434023204234747907",2021-09-04 05:19:09,"chidambara09","#Venice 
#Dune https://t.co/lckE6q6zwg 

#SOciaLmediA
#100DaysOfCode #Bigdata #WomenWhoCode #Python #flutter #cybersecurity #RStats #CodeNewbie #DEVCommunity #RPA #DataScience #business #AI #iioT #teChnology #MACHiNELearning #healthCare #teCh #CX #FRENCHteCh #finServ #cryptO #USA",12,43
"x737142202481016832","x1433984148746629122",2021-09-04 02:43:57,"chidambara09","investigate
#DATA on booster shots
#WhiteHOUSe https://t.co/dJ3LvM2RoR 
#SOciaLmediA
#100DaysOfCode #Bigdata #WomenWhoCode #Python #flutter #cybersecurity #RStats #CodeNewbie #DataScience #business #AI #iioT #teChnology #MACHiNELearning #healthCare #teCh #CX #FRENCHteCh #finServv",9,22
"x737142202481016832","x1434186741599010823",2021-09-04 16:08:59,"chidambara09","#AutonomousVehicles
#DRONES
https://t.co/HmpZloZYeZ

Thx @enilev

#SOciaLmediA #HEALTHtech
#100DaysOfCode #Bigdata #WomenWhoCode #Python #flutter #cybersecurity #RStats #CodeNewbie #DataScience #business #AI #iioT #teChnology #MACHiNELearning #healthCare #CX #FRENCHteCh #finServ",6,19
"x737142202481016832","x1433982884944048131",2021-09-04 02:38:56,"chidambara09","#SalmaHayek
 https://t.co/chSeoLH24U 
#SOciaLmediA
#100DaysOfCode #Bigdata #WomenWhoCode #Python #flutter #cybersecurity #RStats #CodeNewbie #DEVCommunity #RPA #DataScience #business #AI #iioT #teChnology #MACHiNELearning #healthCare #teCh #CX #FRENCHteCh #finServ #cryptocurrency",5,14
"x737142202481016832","x1434086249376083969",2021-09-04 09:29:40,"chidambara09","#JCVI #COvid19 Long Covid https://t.co/K7Ibjaj2cA 

#SOciaLmediA
#100DaysOfCode #Bigdata #WomenWhoCode #Python #flutter #cybersecurity #RStats #CodeNewbie #DEVCommunity #RPA #DataScience #business #AI #iioT #teChnology #MACHiNELearning #healthCare #teCh #CX #FRENCHteCh #finServ",9,23
"x737142202481016832","x1434070460635832323",2021-09-04 08:26:56,"chidambara09","#HaileyBieber https://t.co/wsFVaX7pkV
#SOciaLmediA
#100DaysOfCode #Bigdata #WomenWhoCode #Python #flutter #cybersecurity #RStats #CodeNewbie #DEVCommunity #RPA #DataScience #business #AI #iioT #teChnology #MACHiNELearning #healthCare #teCh #CX #FRENCHteCh #finServ #cryptocurrency",5,15
"x737142202481016832","x1433971534054318080",2021-09-04 01:53:50,"chidambara09","#MAGiC of self hosted #bLOG happens https://t.co/pXFV1pZn8l
by geOrge v v
ThX @enilev 

#SOciaLmediA
#100DaysOfCode #Bigdata #WomenWhoCode #Python #flutter #RStats #CodeNewbie #DataScience #business #AI #iioT #teChnology #MACHiNELearning #healthCare #teCh #CX #FRENCHteCh #finServ",5,17
"x737142202481016832","x1433972477386903553",2021-09-04 01:57:35,"chidambara09","Combining #iNNOVATiON in #Siemens EDA with #Digitalization https://t.co/2rnN4RJNLy 

#SOciaLmediA
#100DaysOfCode #Bigdata #WomenWhoCode #Python #flutter #RStats #CodeNewbie #DEVCommunity #RPA #DataScience #business #AI #iioT #teChnology #healthCare #teCh #CX #FRENCHteCh #finServ",3,5
"x737142202481016832","x1434135938897088518",2021-09-04 12:47:07,"chidambara09","@women_era 

@lizziejearl Founder of Nibble, #Women #Entrepreneurs of 2021
https://t.co/HpMRObG2Mq 
#SOciaLmediA
#100DaysOfCode #Bigdata #WomenWhoCode #Python #flutter #RStats #CodeNewbie #DataScience #business #AI #iioT #teChnology #MACHiNELearning #teCh #CX #FRENCHteCh #finServ",6,12
"x737142202481016832","x1434126325485211653",2021-09-04 12:08:55,"chidambara09","#JordanaBrewster  https://t.co/N1IMwGwfYt 
#SOciaLmediA
#100DaysOfCode #Bigdata #WomenWhoCode #Python #flutter #cybersecurity #RStats #CodeNewbie #DEVCommunity #RPA #DataScience #business #AI #iioT #teChnology #MACHiNELearning #healthCare #teCh #CX #FRENCHteCh #finServ #cryptO",1,7
"x737142202481016832","x1434023675053817856",2021-09-04 05:21:01,"chidambara09","#TheRealCharlieChaplin  https://t.co/BrcpuDnR8c 
#SOciaLmediA
#100DaysOfCode #Bigdata #WomenWhoCode #Python #flutter #cybersecurity #RStats #CodeNewbie #DEVCommunity #RPA #DataScience #business #AI #iioT #teChnology #MACHiNELearning #healthCare #teCh #FRENCHteCh #finServ #Crypto",6,25
"x737142202481016832","x1434085630003146757",2021-09-04 09:27:12,"chidambara09","How #DRONES Revolutionize #HEALTHCare https://t.co/JwjOvkgkF7

@enilev
@BetaMoroney  

#healthTECh
#SOciaLmediA
#100DaysOfCode #Bigdata #WomenWhoCode #Python #flutter #RStats #CodeNewbie #DataScience #business #AI #iioT #teChnology #MACHiNELearning #teCh #CX #FRENCHteCh #finServ",10,20
"x737142202481016832","x1433982136042721282",2021-09-04 02:35:57,"chidambara09","#ZoeSaldana https://t.co/o6DdGA8ntj 

#SOciaLmediA
#100DaysOfCode #Bigdata #WomenWhoCode #Python #flutter #cybersecurity #RStats #CodeNewbie #DEVCommunity #RPA #DataScience #business #AI #iioT #teChnology #MACHiNELearning #healthCare #teCh #CX #FRENCHteCh #finServ #cryptocurrency",5,11
"x737142202481016832","x1434038350655078402",2021-09-04 06:19:20,"chidambara09","https://t.co/I7UFTG0Dgr 

(22 hours old NeWs)
#SOciaLmediA
#100DaysOfCode #Bigdata #WomenWhoCode #Python #flutter #cybersecurity #RStats #CodeNewbie #DEVCommunity #RPA #DataScience #business #AI #iioT #teChnology #MACHiNELearning #healthCare #teCh #CX #FRENCHteCh #finServ #cryptO",11,30
"x737142202481016832","x1433978140674510853",2021-09-04 02:20:05,"chidambara09","Is #bitCOin Losing Its Situation 

#SOciaLmediA
#100DaysOfCode #Bigdata #WomenWhoCode #Python #flutter #RStats #CodeNewbie #DEVCommunity #RPA #DataScience #business #AI #iioT #teChnology #MACHiNELearning #healthCare #teCh #CX #FRENCHteCh #finServ #cryptO
 https://t.co/vNMprSxFOB",8,32
"x737142202481016832","x1434031828814368769",2021-09-04 05:53:25,"chidambara09","EVENT
Live*
#CinderellaMovie https://t.co/c4YAw4ToEw
#SOciaLmediA
#100DaysOfCode #Bigdata #WomenWhoCode #Python #flutter #cybersecurity #RStats #CodeNewbie #DEVCommunity #RPA #DataScience #business #AI #iioT #teChnology #MACHiNELearning #teCh #CX #FRENCHteCh #finServ #cryptO #USA",12,35
"x737142202481016832","x1433965154924843008",2021-09-04 01:28:29,"chidambara09","#Cash Pouring 
Into #China https://t.co/2BuRsGxNbI
#SOciaLmediA
#100DaysOfCode #Bigdata #WomenWhoCode #Python #flutter #cybersecurity #RStats #CodeNewbie #DEVCommunity #RPA #DataScience #business #AI #iioT #teChnology #MACHiNELearning #health #teCh #CX #FRENCHteCh #finServ #crypO",15,38
"x737142202481016832","x1433976612949659650",2021-09-04 02:14:01,"chidambara09","#TensorFlow #Data over ImageDataGenerator  https://t.co/RQSFpmImFL
ThX
@enilev mam

#SOciaLmediA
#100DaysOfCode #Bigdata #WomenWhoCode #Python #flutter #RStats #CodeNewbie #DEVCommunity #DataScience #AI #iioT #teChnology #MACHiNELearning #healthCare #teCh #CX #FRENCHteCh #finServ",8,30
"x737142202481016832","x1434069248989536262",2021-09-04 08:22:07,"chidambara09","#Nicole S
#MoneyHeist https://t.co/6W1bIpgkCd

#SOciaLmediA
#100DaysOfCode #Bigdata #WomenWhoCode #Python #flutter #cybersecurity #RStats #CodeNewbie #DEVCommunity #DataScience #business #AI #iioT #teChnology #MACHiNELearning #healthCare #teCh #CX #FRENCHteCh #finServ #cryptOArt",9,22
"x737142202481016832","x1434125992226791424",2021-09-04 12:07:35,"chidambara09","#China’s Xi https://t.co/TVomRXDEXR 
#SOciaLmediA
#100DaysOfCode #Bigdata #WomenWhoCode #Python #flutter #cybersecurity #RStats #CodeNewbie #DEVCommunity #RPA #DataScience #business #AI #iioT #teChnology #MACHiNELearning #healthCare #teCh #CX #FRENCHteCh #finServ #cryptocurrency",2,4
"x737142202481016832","x1433964731719577601",2021-09-04 01:26:48,"chidambara09","#Augmented, Mixed, &amp; #ViRTUALReality-
#Medical #Education:

https://t.co/1fMWLLz9rV
#SOciaLmediA
#100DaysOfCode #Bigdata #WomenWhoCode #Python #flutter #RStats #CodeNewbie #DEVCommunity #DataScience #AI #iioT #teChnology #MACHiNELearning #healthCare #teCh #CX #FRENCHteCh #finServ",14,36
"x737142202481016832","x1433973662638428168",2021-09-04 02:02:17,"chidambara09","#5G 
by wang jing https://t.co/BfvBAJJ2zX
MerCi @BetaMoroney

#SOciaLmediA
#100DaysOfCode #Bigdata #WomenWhoCode #Python #flutter #RStats #CodeNewbie #DEVCommunity #RPA #DataScience #AI #iioT #teChnology #MACHiNELearning #healthCare #teCh #CX #FRENCHteCh #finServ #cryptocurrency",4,8
"x737142202481016832","x1434193571616157698",2021-09-04 16:36:08,"chidambara09","@GrazyTGrazynaTT Interview #ChuckBrooks #Cybersecurity Expert  https://t.co/WAJtXf12B0

Thx TEACHER
@GrazyTGrazynaTT
 
#SOciaLmediA
#100DaysOfCode #Bigdata #WomenWhoCode #Python #flutter #Uk #RStats #CodeNewbie #DataScience #business #AI #iioT #teChnology #MACHiNELearning #CX #FRENCHteCh #finServ",9,21
"x737142202481016832","x1434027660519174146",2021-09-04 05:36:51,"chidambara09","https://t.co/il0vjWh3nZ
#industrial
#ENERGY
#SiEMENS 
#EurOpe #Uk

#SOciaLmediA
#100DaysOfCode #Bigdata #WomenWhoCode #Python #flutter #cybersecurity #RStats #CodeNewbie #RPA #DataScience #business #AI #iioT #teChnology #MACHiNELearning #teCh #CX #FRENCHteCh #finServ #cryptO
#USA",8,17
"x737142202481016832","x1433982532995878913",2021-09-04 02:37:32,"chidambara09","#BradPitt https://t.co/Q0fXg3gjxj 

#SOciaLmediA
#100DaysOfCode #Bigdata #WomenWhoCode #Python #flutter #cybersecurity #RStats #CodeNewbie #DEVCommunity #RPA #DataScience #business #AI #iioT #teChnology #MACHiNELearning #healthCare #teCh #CX #FRENCHteCh #finServ #cryptocurrency",2,13
"x737142202481016832","x1434069878156128256",2021-09-04 08:24:37,"chidambara09","#JoJo #Kylie
#MoneyHeist https://t.co/5ttSzSk2eQ 

#SOciaLmediA
#100DaysOfCode #Bigdata #WomenWhoCode #Python #flutter #cybersecurity #RStats #CodeNewbie #RPA #DataScience #business #AI #iioT #teChnology #MACHiNELearning #healthCare #teCh #CX #FRENCHteCh #finServ #cryptocurrency",3,11
"x737142202481016832","x1434127033190129664",2021-09-04 12:11:44,"chidambara09","#JessicaChastain
#PenelopeCruz https://t.co/YMZUJCxjdL
#SOciaLmediA
#100DaysOfCode #Bigdata #WomenWhoCode #Python #flutter #cybersecurity #RStats #CodeNewbie #DEVCommunity #RPA #DataScience #business #AI #iioT #teChnology #MACHiNELearnin #teCh #CX #FRENCHteCh #finServ #CryptoNews",0,6
"x737142202481016832","x1433962653009924098",2021-09-04 01:18:32,"chidambara09","#Philippine #Airlines https://t.co/jySNqtc74T 

#Machinelearning
#SOciaLmediA
#100DaysOfCode #Bigdata #100DaysOfMLCode #Python #flutter #cybersecurity #RStats #CodeNewbie #DEVCommunity #RPA #DataScience #business #WEb #AI #iioT #teChnology #healthCare #teCh #CX #finServ #CryptO",1,11
"x737142202481016832","x1434026412600561668",2021-09-04 05:31:54,"chidambara09","#HHS #hospitals
#Carbon Emissions
 https://t.co/76VbGXtTMG 
#SOciaLmediA
#100DaysOfCode #Bigdata #WomenWhoCode #Python #flutter #cybersecurity #RStats #CodeNewbie #RPA #DataScience #business #AI #iioT #teChnology #MACHiNELearning #healthCare #teCh #CX #FRENCHteCh #finServ #Crypto",13,32
"x737142202481016832","x1434127390293123076",2021-09-04 12:13:09,"chidambara09","#RuthWilson
 https://t.co/iH7NQUpHpm

#SOciaLmediA
#100DaysOfCode #Bigdata #WomenWhoCode #Python #flutter #cybersecurity #RStats #CodeNewbie #DEVCommunity #RPA #DataScience #business #AI #iioT #teChnology #MACHiNELearning #healthCare #teCh #CX #FRENCHteCh #finServ #cryptocurrency",1,6
"x1139615259176636416","x1434193545435435016",2021-09-04 16:36:01,"crcgrubbsd","Thanks, Eric! Your feedback has been really helpful. @theRcast #rstats @RobCalver5 @lara_crc https://t.co/bOIdxGEnbl",1,1
"x839942645883551744","x1434193197706715136",2021-09-04 16:34:39,"_TanHo","Tonight on stream: AGH FOOTBALL IS SO CLOSE, THERES SO MUCH I WANTED TO DO! (automating an #rstats #sfb11 report with Distill/GHA? Adding an inseason/weekly feature for ffsimulator? making an ffsimulator app?) 😱 so little time 😱

Live at 8pm EDT: https://t.co/6ocd4fxE9o",1,3
"x780551700432117760","x1434190111239933958",2021-09-04 16:22:23,"StarTrek_Lt","@PR0GRAMMERHUM0R #RStats Atomic vectors https://t.co/7SHQ0xqaZl",0,1
"x1359942243017101312","x1434189545008812035",2021-09-04 16:20:08,"joshualerickson","#66daysofdata #Accountability #rstats #hydrology 

Day 66 highlights: 

I'm done! What a great experience! Will definitely do it again but for now I'm going to wander 😀. Also, great community. Thanks @KenJee_DS!!! Today. Sample rnorm() and compare to lognormal and logpearson 👌 https://t.co/7k429VtfXP",1,2
"x1359942243017101312","x1433944243387518976",2021-09-04 00:05:23,"joshualerickson","#rstats users I have a question. I know that there is reasons for both but would you rather have something like `parallel = TRUE` or just know, e.g. in the description, notes, etc? Help! My code uses {furrr} so future::plan() or not... it will run...",0,3
"x1359942243017101312","x1433946152706080773",2021-09-04 00:12:58,"joshualerickson","#66daysofdata #Accountability #rstats #hydrology #rgee 

Day 65 highlights: 

Worked a little bit more on the precipitation data but added GRIDMET, which uses PRISM but adds a temporal parameter to the model. Viewing it in 'proportion' you notice the lag of PRISM. https://t.co/fhftl16phj",5,1
"x345606136","x1434184994579230720",2021-09-04 16:02:03,"SonCylon","I would like to share my latest  #rshiny app. I built it with #shinydashboard.  But I used too many ""css: !important;"" to change default options of it.

I glad if you check it :
https://t.co/SzK76313Lw

#rstats #rstatstr #shiny #gt #ggiraph",2,2
"x967030258661756928","x1434184595679764482",2021-09-04 16:00:28,"erc_bk","Indiana COVID-19 Tracker noon update.
Miscellaneous: https://t.co/9jqENenclS
COVIDcast Dashboard: https://t.co/Aj8U8rDVum
Demographics: https://t.co/EXHpo4hgTj
Hospitals: https://t.co/Sw3skMZQTH #rstats https://t.co/D7axAMnDbz",0,1
"x14629263","x1434183132346044422",2021-09-04 15:54:39,"JonTheGeek","Is there an up-to-date #rstats package for accessing Google calendar (at least reading, but writing would be great)? https://t.co/XxZFhJ1KhY hasn't been updated in a year and fails to authenticate 😢 Any ideas @JennyBryan?",6,3
"x1111421258510426118","x1434181775081697286",2021-09-04 15:49:15,"everythingCour1","Artificial Intelligence Level 1: Cogito

Goto : https://t.co/Y2XomSudgr

#ArtificialIntelligence #DeepLearning #Analytics #DataScience #AI #MachineLearning #Python #RStats #CloudComputing #Serverless #Linux #Coding #100DaysofCode #100DaysOfMLCode #udemyfree https://t.co/ZFKOQG68Z5",3,16
"x1111421258510426118","x1434172308407476234",2021-09-04 15:11:38,"everythingCour1","Artificial Intelligence Markup Language (AIML)

Goto : https://t.co/O98hxkurZO

#ArtificialIntelligence #Languages #DeepLearning #Analytics #DataScience #AI #MachineLearning #Python #RStats #CloudComputing #Serverless #Linux #Coding #100DaysofCode #100DaysOfMLCode #udemy https://t.co/E78BlFzEaa",12,28
"x1111421258510426118","x1434176955771867146",2021-09-04 15:30:06,"everythingCour1","Introduction to AI for Business

Goto : https://t.co/CFbhzmi6R1

#ArtificialIntelligence #Languages #DeepLearning #Analytics #DataScience #AI #business #MachineLearning #Python #RStats #CloudComputing #Serverless #Linux #Coding #100DaysofCode #100DaysOfMLCode #udemy100off https://t.co/YHa9JCS751",10,24
"x983470194982088704","x1434028558523973634",2021-09-04 05:40:25,"R4DScommunity","The next R4DS Office Hours begin at Sep 04, 2021 02:00AM CDT! Have an #rstats question you've been meaning to ask? Head over to our slack via https://t.co/XpQXP5Iano, and we'll try to get you an answer! See the calendar for upcoming office hours: https://t.co/rb7kh5s6pS",1,2
"x983470194982088704","x1434180941925203968",2021-09-04 15:45:57,"R4DScommunity","The next R4DS Office Hours begin at Sep 04, 2021 12:00PM CDT! Have an #rstats question you've been meaning to ask? Head over to our slack via https://t.co/XpQXP5Iano, and we'll try to get you an answer! See the calendar for upcoming office hours: https://t.co/rb7kh5s6pS",1,3
"x16998179","x1434179775510220802",2021-09-04 15:41:18,"dsquintana","{progress} is a nifty #Rstats package that illustrates the progress of computational processes and downloads in your console https://t.co/KELB9zGSiX

[============------]  81% https://t.co/H02qtGSGiQ",10,3
"x1202170936721657856","x1434177179995234306",2021-09-04 15:31:00,"MarsjaSe","How to Use Binder and R for Reproducible Research https://t.co/DPDoWbxQlo #RStats #Datascience #Programming",2,4
"x229564414","x1434173671313190913",2021-09-04 15:17:03,"minebocek","Thanks for having me #satRdayNairobi!

Here are the materials from the workshop:

🖥 Slides: https://t.co/lrL1nt617K
☁️ RStudio Cloud project: https://t.co/NQV74depmX (if you want to follow along with the demos)

#rstats #rmarkdown https://t.co/4eBukaiozU",40,12
"x375801620","x1434170363546533888",2021-09-04 15:03:54,"ChristosArgyrop","Interesting #rstats obs: I have to show the results of Bayesian analysis in multiple (10,000) simulated datasets . Analysis of each dataset is via a fixed effects poisson,  which stan_glm can tackle in &lt; 5sec serially, but it slows down x7 during parallel chain simulation",3,2
"x895213223724666880","x1434167910222675969",2021-09-04 14:54:10,"dr_xeo","[🆕POST]  My first blog post after my summer vacation. As I promised recently, here we go on how to make climate circles in R. #rstats #dataviz

👉https://t.co/JpgzTZCzVS https://t.co/g30vmpkMAi",191,35
"x815555071517872128","x1434166118814523394",2021-09-04 14:47:02,"mdancho84","#R #Shiny apps can be intimidating. I made this cheat sheet to help you:

1. Learn the Shiny Ecosystem
2. Locate shiny extensions 
3. Learn HTML &amp; CSS

Get my cheat sheet here: https://t.co/tFT0JRwxC8

#rstats https://t.co/x3AsaJ663l",41,12
"x815555071517872128","x1434133402500874245",2021-09-04 12:37:02,"mdancho84","#Tableau is great. But why do I prefer #Shiny?

Tableau is good for ad hoc dashboards with cleaned data

For production dashboards that are customizable, scalable &amp; capable of running #Python &amp; #R code for ML/AI pipelines, Shiny reigns supreme. 

#rstats

https://t.co/cefdycwVC7 https://t.co/PwtufOp8gK",28,3
"x815555071517872128","x1434102817367773184",2021-09-04 10:35:30,"mdancho84","Nice! My modeltime R package was just featured #rstats 😊 https://t.co/1wrjo1yY03",18,2
"x45216478","x1434164054646423552",2021-09-04 14:38:50,"LukeSonnet","Is anyone aware of #rstats packages or code snippets that implement the Hajek est. w/ linearized variance or the WLS w/ linearized variance estimators discussed in Aronow &amp; Samii (2017) ""Estimating Average Causal Effects Under General Interference""",1,2
"x26616462","x1434159651168276483",2021-09-04 14:21:20,"ctitusbrown","Playing around with some new computer stuff for fun and goodness me, the combo of conda (make new, isolated python environments) and pip install (install stuff not packaged w/conda) is just so lovely and easy! I've been having similar experiences with conda/#rstats installs.",8,3
"x1229991659812704257","x1434159100305174530",2021-09-04 14:19:09,"NainaChaturved8","Day 6–60 days of Data Science and Machine Learning Series
https://t.co/QcAYLfKmqe
#Python #BigData #Analytics #DataScience  #RStats  #Flutter #TensorFlow #MachineLearning #DataScientist  #Programming #Coding #100DaysofCode #HubofML",12,29
"x1064407014472744960","x1434158375487426561",2021-09-04 14:16:16,"TheInsaneApp","Data Science in a Nutshell

#DataScience #MachineLearning #AI #ArtificialIntelligence #RStats https://t.co/PFb8rAt4ZE",18,17
"x967382282402254848","x1434147326755360769",2021-09-04 13:32:22,"Strat_AI","National #Cybersecurity Virtual Career Fair on Sep 17, 9-1pm PT. || #100DaysOfCode #AI #Analytics #AR #ArtificialIntelligence #BigData #Cloud #Coding #Data #DataScience #Flutter #MachineLearning #ML #NLP #NodeJS #Python #RStats #Tech #VR #WomenWhoCode https://t.co/gFRh5KoHGI https://t.co/h3jWF9w5Hn",11,30
"x967382282402254848","x1434158342226669573",2021-09-04 14:16:08,"Strat_AI","#Career: Engineer the Future of Defense at @BoozAllen! || #100DaysOfCode #AI #Analytics #AR #ArtificialIntelligence #BigData #Cloud #Coding #Data #DataScience #DataViz #Flutter #MachineLearning #ML #NLP #NodeJS #Python #RStats #Tech #VR #WomenWhoCode https://t.co/40NJT7xF1H https://t.co/amRakXVQ0H",8,34
"x5685812","x1434156208806666242",2021-09-04 14:07:40,"hrbrmstr","TIL #RStats {stringi} stri_sort() has a ""numeric = TRUE"" collator option for understanding numerics in strings  https://t.co/Cc9cwWXqKi https://t.co/mdDuD4dXV8",42,10
"x1319516983231090689","x1434152909290102787",2021-09-04 13:54:33,"NeuraSapiens","Different Windows CMD commands. Which one did you know before? 

#rstats #opensource #programming #Microsoft #DataScience https://t.co/fEZS4JqpBn",1,5
"x1365340156069306371","x1434146731805995018",2021-09-04 13:30:00,"deepvaluebettor","still a bit early, but how are NFL bettors positioned as we creep into week 1? we looked at current ca$h allocated to spread bets by team and can see the obvious suspects (Bucs, Niners, Rams, Bills, Chiefs) lead the way...but also, Jaguars? 🧐 #Rstats

data via @pregame https://t.co/UFJQpd12E5",6,5
"x3334769531","x1434143562312994824",2021-09-04 13:17:25,"DootikaV","Question for #rstats, when did it become the norm to open braces in-line? I cannot with this. https://t.co/SQwQQ7MDcJ",17,3
"x2423966738","x1434142574961471491",2021-09-04 13:13:29,"KCKlatt","Are you a responsible adult, or do you also just load the same (growing) list of R packages regardless of whether you need them for the code you're running? #AcademicChatter #Rstats",26,3
"x390722263","x1434141110755024896",2021-09-04 13:07:40,"Shel_Kariuki","Our second and final keynote of the day is by @ma_salmon who will be talking about working with projects in #rstats #satRdayNairobi

Youtube live stream link: https://t.co/WBGdLDmyx0 https://t.co/Vapd8ua1xy https://t.co/IxzgwBU36T",3,5
"x390722263","x1434125837671059457",2021-09-04 12:06:59,"Shel_Kariuki","...and we are now live with @ikashnitsky to talk more about creating powerful dataviz with #rstats #satRdayNairobi 

Youtube Livestream link: https://t.co/3G15lsrRBH https://t.co/xCARphKKFM https://t.co/RWDiHURENR",11,7
"x705200283","x1434140028893024257",2021-09-04 13:03:22,"krissianyo","We are underway with the last keynote for the day. Join us and learn more on how to work on Projects in R #rstats #rladies #NairobiR #satRdayNairobi https://t.co/2eNHYHGmUS https://t.co/ww8TzjAWar",8,6
"x1056900776340193285","x1434133002951565323",2021-09-04 12:35:27,"filippos_pol","Patrick Beverley &amp; Taurean Prince provide the much needed perimeter shooting to the Timberwolves roster. This equals better spacing for KAT-Ant-DLo to generate their offense.

#rstats https://t.co/fV37wsmfco",4,2
"x775747826819006464","x1434127855927971848",2021-09-04 12:15:00,"vishal_katti","Sounds like a good candidate for #RStats #TidyTuesday with 20B transactions. Check out the API. https://t.co/ayaraWU0L1",5,4
"x1163542887503749121","x1434127680367206409",2021-09-04 12:14:18,"brandosborn","What are your favorite #RStats packages and why (what do you use them for)? I think #tidy #tidyverse is a given 😂 #AcademicChatter #DataScience #pophealth #R",6,2
"x29963497","x1434123118071648258",2021-09-04 11:56:10,"nicci_potts","First blog post -
Mapping  Scotland's social survey data in R. 

Using the #ScottishHouseholdSurvey to look at local authority changes in behaviours/attitudes.

What's up with that Western Isles decrease?

#RStats #ClimateChange

https://t.co/t0D8wAf3H1 https://t.co/cbBvYwz6Bc",3,2
"x29963497","x1434121521056919552",2021-09-04 11:49:49,"nicci_potts","My blog is now live 🎉

I've created this to share some R things I find interesting or potentially useful (probably mostly be about using social data in R).

Only 1 post up so far but it's been fun learning new skills to get to this point! 

#RStats

https://t.co/hiDoNOeH5v",15,2
"x466400265","x1434121878541537284",2021-09-04 11:51:15,"marcus_volz","Paths of gradient descent 017 #rstats #ggplot2 #mathart #generativeart https://t.co/QUFZoKL4A6",8,4
"x421213288","x1434121727852875776",2021-09-04 11:50:39,"ibddoctor","The first {medicaldata} hex stickers are going out in the mail today!
You can learn about the #rstats package from the #RMedicine21 video: 
https://t.co/im6L72UL59
and even get your own stickers in a SASE! https://t.co/JHwqoGdgv7",18,8
"x1229123567364792321","x1434121516342513668",2021-09-04 11:49:48,"botswana_r","Special thanks to @ekambeu for todays presentation. Special thanks also to @dragonflystats for being our guest. Not forgetting everyone who attended. A big thank you #RStats @AfricaRUsers https://t.co/CPAQ0hGxri https://t.co/NfYZNowiip",3,2
"x1199352590145708033","x1434111352012898313",2021-09-04 11:09:25,"couponed_code","The Complete Self-Driving Car Course - Applied Deep Learning 

https://t.co/VnfCoF0EEd

#DeepLearning #Analytics #DataScience #AI #MachineLearning #IoT #IIoT #Python #RStats #CloudComputing #Serverless #Linux #Programming #Coding #100DaysofCode #100DaysOfMLCode #udemyfree https://t.co/yP1t5ij4Od",22,40
"x1199352590145708033","x1434121221755473925",2021-09-04 11:48:38,"couponed_code","Introduction to Artificial Intelligence in Software Testing 

https://t.co/9nUgNiOL2v

#ArtificialIntelligence #DeepLearning #Analytics #DataScience #AI #MachineLearning #IoT #IIoT #Python #RStats #CloudComputing #Serverless #Coding #100DaysofCode #100DaysOfMLCode #udemyfree https://t.co/Bpt6s7dZ0N",23,23
"x1199352590145708033","x1434117958947639307",2021-09-04 11:35:40,"couponed_code","Introduction to Artificial Intelligence (AI) 

View  https://t.co/OzfrkxEYEY

#ArtificialIntelligence #DeepLearning #Analytics #DataScience #AI #MachineLearning #IoT #IIoT #Python #RStats #CloudComputing #Serverless #Programming #Coding #100DaysofCode #100DaysOfMLCode #udemyfree https://t.co/cUE2lG3mRL",6,16
"x369515982","x1434119596018212876",2021-09-04 11:42:11,"sh_hameed","Infographic: An easy guide of Machine Learning vs. Deep Learning

#Machinelearning #100DaysOfCode #IoT #IIoT #Bigdata #DeepLearning #100DaysOfMLCode #Python #flutter #cybersecurity #RStats #CodeNewbie #DataScience #DEVCommunity #RPA #Great #artificialintelligence https://t.co/wkmiOlPHFW",5,13
"x285574835","x1434118852921679875",2021-09-04 11:39:13,"Sciencificity","@asmae_toumi One of the many reasons I love the #RStats community! The dedication of the community teachers is 🔥♥️💜🥰. Thanks @RLadiesNairobi and friends for a wonderful first satRday Nairobi.",7,2
"x546942738","x1434111040971841541",2021-09-04 11:08:11,"ALSALHAN","Infographic: An easy guide of Machine Learning vs. Deep Learning

#Machinelearning #100DaysOfCode #IoT #IIoT #Bigdata #DeepLearning #100DaysOfMLCode #Python #flutter #cybersecurity #RStats #CodeNewbie #DataScience #DEVCommunity #RPA #Great #artificialintelligence https://t.co/F3yigce3RD",52,54
"x1279294337961136135","x1434107987304534016",2021-09-04 10:56:03,"abmsacademy","Books from https://t.co/JFpvnoC7xj

Business Intelligence
Machine Learning
Stock prediction
R Programming

#BigData 
 #Analytics #DataScience #AI #MachineLearning #RStats  #CloudComputing #Serve #DataScientist  #Programming #Coding #100DaysofCode 
#StocksToWatch https://t.co/giNkHaHUW2",0,8
"x822474323436929026","x1434107892253200387",2021-09-04 10:55:40,"lawinowiecki","@BjnNowak these are seriously cool!
Connecting #RStats and #Soil #Science  

@4theloveofsoil @vargasfao @vaughan_soil @WomenInSoilEco https://t.co/HBBxbrprfG",1,1
"x1360556006883876866","x1434105547834470401",2021-09-04 10:46:21,"Simon83633780","Those that started with #rstats and then moved to adding #pandas skills. How long did it take get comfortable in pandas?",1,1
"x1152145394081652737","x1434104829719285761",2021-09-04 10:43:30,"ijsmiresearch","Statistics Data Science, Machine Learning and Deep Learning related books 
https://t.co/vyjH2dchR3

#MachineLearning 
#DataScience 
#Statistics 
#ArtificialIntelligence 
#PredictiveAnalytics 
#Rstats 
#Python  
#Programming 
#100DaysOfCode 
#ijsmibooks https://t.co/jy8mHA3CIu",8,18
"x1011438486073872385","x1434102120333160452",2021-09-04 10:32:44,"RLangPackage","treetop - Set of tools implemented into a shiny-based application for extracting and analyzing individual tree forest attributes from LiDAR (Light Detection and Ranging) data. #rstats https://t.co/rTHLq3XHUg",13,4
"x1368227387985526787","x1434099812941668353",2021-09-04 10:23:34,"wmktech","ARE YOU LOOKING FOR AI JOBS TO APPLY THIS WEEKEND? THEN HERE YOU GO
#DataScientists #Analytics #BigData #Rstats #AI #Reactjs #Python #DataScience #MachineLearning #IoT #IIoT #ML #NLP #flutter #javascript #TensorFlow #Coding  #100DaysOfCode
#cybersecurity
https://t.co/hQ60THSDUW",26,53
"x103516223","x1434094029403086849",2021-09-04 10:00:35,"mdsumner","* as_raster() also controls band/s, resample method
* then finally, we're in-memory, in {raster} hands, plotRGB or plot, control the colours, etc. 

{lazyraster} #rstats #GDAL 3/3",1,2
"x103516223","x1433951446022590464",2021-09-04 00:34:00,"mdsumner","Robert Hijmans @opengeohub presentation highlighted the importance of ""knowing your raster grid"" ... aligning extents, having a sensible *origin* (whole-cell steps that align to 0,0), and how carelessness here is an endless source of problems

#yesitis 
👌
#rstats https://t.co/PtTqUTHGZM",9,6
"x103516223","x1434091316560891910",2021-09-04 09:49:48,"mdsumner","#rstats #lazyraster long overdue update based on {vapour} 0.8.0, gets a new merc(lon, lat, wh) function to generate an extent, and some examples getting satellite imagery, USGS maps, and elevation data https://t.co/XEKEbA7R16",10,4
"x103516223","x1434094027188563971",2021-09-04 10:00:34,"mdsumner","* optionally crop() with the Mercator extent/bbox to spatially limit what we read
* break the lazy chain with as_raster(, dim = c(nx, ny)) - this *actually reads* the data, and gives us level-of-detail we want (nx * ny) as a grid
/2  #rstats #lazyraster",1,2
"x103516223","x1434098014423949314",2021-09-04 10:16:25,"mdsumner","#rstats #rspatial  🤔an extent generator that didn't care or know what projection your data ... just recorded your intent for *where* (lon,lat) and how far in each direction ...

you could use it in contexts where something knew what projection to apply it in ... #nameit https://t.co/IsKrVU6tEr",1,3
"x1306856805922996224","x1434097423387930625",2021-09-04 10:14:04,"m_schmidt_soil","We are giving an introductory, free #MachineLearning in #Rstats workshop on #soil data at the @zalf_leibniz #Landscape2021 conference. Anyone is welcome! Check tweet 👇&amp; link for info! #knn #randomforest #datascience #codingisfun https://t.co/gztKJ0Utq8",13,9
"x1545743467","x1434093209853038595",2021-09-04 09:57:20,"Samah92200","hcl Appscan
#Rstats #Reactjs #IIoT #Linux #Serverless #flutter  #TensorFlow #BigData  #SDGs #lowcode #javascript #github #nodejs #cybersecurity #devops #100DaysOfCode #datascience #ai #bot #codenewbie #iot #machinelearning #Python #Serverless #womenintech  https://t.co/T2eaPkkAvX",2,13
"x41328274","x1434092631026458626",2021-09-04 09:55:02,"doctorin","This is exactly what I was looking for: a workflow to analyze data, save and show the results with #RStats, and see #SPSS off. @rstudio, #tidyverse and #markdown rule! Thanks @MaraAlexeev, @tladeras and @chendaniely https://t.co/o36ZEHiZ1d",9,4
"x1116759800602345472","x1434092412176146435",2021-09-04 09:54:09,"KewKalustian","Yeah, I completed my Data Science #rstats certification 
@HarvardOnline!

Fantastic experience – I learned so much from attending 
@rafalab’s courses. Highly recommended if you want to delve into coding and data science! #DataScience #MachineLearning https://t.co/TiWseA6niv",11,8
"x1365037396807602177","x1434085415003299840",2021-09-04 09:26:21,"alkayal_wajdi","ARE YOU LOOKING FOR AI JOBS TO APPLY THIS WEEKEND? THEN HERE YOU GO
#DataScientists #Analytics #BigData #Rstats #AI #Reactjs #Python #DataScience #MachineLearning #IoT #IIoT #ML #NLP #flutter #javascript #TensorFlow #Coding  #100DaysOfCode
#cybersecurity
https://t.co/QzMVUx4vfB",16,39
"x1364806129717563394","x1434085321872924677",2021-09-04 09:25:59,"Wajdialkayal1","ARE YOU LOOKING FOR AI JOBS TO APPLY THIS WEEKEND? THEN HERE YOU GO
#DataScientists #Analytics #BigData #Rstats #AI #Reactjs #Python #DataScience #MachineLearning #IoT #IIoT #ML #NLP #flutter #javascript #TensorFlow #Coding  #100DaysOfCode
#cybersecurity
https://t.co/eHE3GFw0Wt",18,28
"x1348873854","x1434085094273261569",2021-09-04 09:25:05,"rushworth_a","Any #rstats regex ninjas know what the difference is between base R's trimws() &amp; stringr::str_trim()?  

Trying to cut off white space in some scraped text and all the usual stuff (\s\n\t, [[:blank:]] etc) doesn't work.  Would like to avoid importing all of stringr if possible. https://t.co/mNAOkKIHi5",6,4
"x1355257214529892352","x1434085083464577027",2021-09-04 09:25:02,"WajdiAlkayal","ARE YOU LOOKING FOR AI JOBS TO APPLY THIS WEEKEND? THEN HERE YOU GO
#DataScientists #Analytics #BigData #Rstats #AI #Reactjs #Python #DataScience #MachineLearning #IoT #IIoT #ML #NLP #flutter #javascript #TensorFlow #Coding  #100DaysOfCode
#cybersecurity
https://t.co/L1pjfslG3A",18,37
"x1365033981696237571","x1434084762612899841",2021-09-04 09:23:46,"AlkayalWajdi","ARE YOU LOOKING FOR AI JOBS TO APPLY THIS WEEKEND? THEN HERE YOU GO
#DataScientists #Analytics #BigData #Rstats #AI #Reactjs #Python #DataScience #MachineLearning #IoT #IIoT #ML #NLP #flutter #javascript #TensorFlow #Coding  #100DaysOfCode
#cybersecurity
https://t.co/d6NeWOeTqJ",21,46
"x1398230422920871942","x1434080622499307521",2021-09-04 09:07:18,"rstatsvideo","📺 New #rstats video: Creating Your First R Package in 2 Minutes in RStudio!
▶ StatistikinDD (@StatistikInDD)
🔗https://t.co/bqFAdCDNZr",4,1
"x1398230422920871942","x1434080356660035589",2021-09-04 09:06:15,"rstatsvideo","📺 New #rstats video: Creating Your Own R Package: Why and When
▶ StatistikinDD (@StatistikInDD)
🔗https://t.co/SjZXTlFKKE",2,1
"x1398230422920871942","x1434080483038613504",2021-09-04 09:06:45,"rstatsvideo","📺 New #rstats video: [rstats] ✨ Shiny ✨ || 📚 Learn with Me || 💖 all levels || ⚒️ building apps with R
▶ Jesse Mostipak (@kierisi)
🔗https://t.co/TpsduZjEbV",4,2
"x983345496038215681","x1434047749377478659",2021-09-04 06:56:41,"WiGISKe","@Kamandeh_ on Data Storytelling at #SatRDay

#NairobiR #satRdayNairobi #rstats #rladies https://t.co/UlkgItU0lQ",10,6
"x983345496038215681","x1434078420728786945",2021-09-04 08:58:34,"WiGISKe","Excited to learn how to work with maps in R!! 
Join in now at #satRDayNairobi
#NairobiR #rstats #rladies https://t.co/DJ54ZKRKDV",30,14
"x208301555","x1434009527871889413",2021-09-04 04:24:48,"annapurani93","Hey #RStats fam! I have to bring multiple plots from multiple data frames into a single frame. I've tried ggarrange and plot_grid but the output still looks a little too clumsy for my liking. Any help/tips on this, please?

#ggplot2 #tidyverse #dataviz",10,3
"x208301555","x1434077156779323392",2021-09-04 08:53:32,"annapurani93","Patchwork is indeed &lt;3!
Thanks for all the help, #RStats fam 💚 https://t.co/bkmdqZ9KSf",1,2
"x2730040530","x1434074248788824069",2021-09-04 08:41:59,"lucy_njokinjuki","Ever want to improve your R skills? Participating in #TidyTuesday is a great way to do so. @magwanjiru and @johnmutiso_, are talking about this at the satRday Nairobi 2021 conference!
#satRdayNairobi #RStats https://t.co/r7v1TLIEtF",33,15
"x1404791117909041168","x1434073937600733185",2021-09-04 08:40:45,"bluepinksec","700 000 résultats de tests Covid français exposés dans une base de données non sécurisée
#privacy #Devops #clouds #training #security #agile #AI #MachineLearning #Python #RStats #TensorFlow  #CloudComputing #Linux #Programming #Coding #100DaysofCode
https://t.co/Gvf2ozxo36",9,23
"x540222837","x1434054846034886658",2021-09-04 07:24:53,"johnmutiso_","The training is on now, a very interesting presentation by @krissianyo on data management in R📈. #rstats 

Great introduction from my co-host 
@lucy_njokinjuki https://t.co/ADN3LlYrpF",7,4
"x540222837","x1434063300749406212",2021-09-04 07:58:29,"johnmutiso_","It's getting more interesting, learning more about data manipulation with the dplyr verbs thanks to @krissianyo  #rstats #NairobiR https://t.co/ezO3hdKXTs https://t.co/E6C8YBmPWa",14,10
"x1259687836262924288","x1434061474154967045",2021-09-04 07:51:13,"DurgapalSeema","Promote your business 👉
#MachineLearning #AI #IoT #Developer #Analytics #DeepLearning  #CloudComputing #Python3 #CodeNewbie #DEVCommunity #BigData #PyTorch #RStats #Java #Linux #DataScience #TensorFlow #CloudComputing #100DaysOfCode #DevOps
#entrpreneur
https://t.co/ttkSttiLGK",10,23
"x325430154","x1434060599508434944",2021-09-04 07:47:45,"Fisheyebox","Why DriverMonitoring is to become mandatory in commercial #autonomousvehicles?

https://t.co/1z6neD9iTr

#selfdrivingcars #smartcity #mobility #MachineLearning #BigData #Analytics #DataScience #IoT #IIoT #Python #RStats #ReactJS #CloudComputing #Serverless #Linux #AI #javascript",5,14
"x2490859483","x1434059064049389569",2021-09-04 07:41:39,"dorianhmekni","Teaching with zoom breakout-rooms and the learnr package  {https://t.co/DMtG9a3EBF} #rstats #DataScience",3,2
"x2490859483","x1434059589604020229",2021-09-04 07:43:44,"dorianhmekni","Power Analysis by Data Simulation in R – Part IV  {https://t.co/Lb4Xw4ASz6} #rstats #DataScience",7,5
"x2490859483","x1434059448419487745",2021-09-04 07:43:10,"dorianhmekni","YAPOEH! (Yet another post on error handling)  {https://t.co/0H3NgmzuQu} #rstats #DataScience",2,2
"x2490859483","x1434059637519699969",2021-09-04 07:43:55,"dorianhmekni","Bond Modified Duration in R  {https://t.co/wp8n28jEAB} #rstats #DataScience",0,1
"x2490859483","x1434059724232794113",2021-09-04 07:44:16,"dorianhmekni","A technical interview question  {https://t.co/icmIy8bJSx} #rstats #DataScience",1,2
"x836510570","x1434053637714718720",2021-09-04 07:20:05,"ingliguori","The 7 Best #NoSQL Books for 2021 https://t.co/gv0lu9L1MO via @ingliguori
MT @gp_pulipaka #BigData #Analytics #DataScience #IoT #PyTorch #Python #RStats #TensorFlow #Java #JavaScript #ReactJS #GoLang #CloudComputing #Serverless #DataScientist #Programming #Coding #100DaysofCode https://t.co/ThQQAIbBMK",44,42
"x1052137272747937792","x1434053379244924932",2021-09-04 07:19:03,"quantargo","When you write code, functions are your best friends. They can make hard things very easy or provide new functionality in a nice way. Through functions you gain access to all the powerful features R has to offer.

Get Started: https://t.co/43bCsyXBYk

#Rstats #DataSience https://t.co/NL3YO9dIYW",1,2
"x1096257616433410048","x1434031649751142402",2021-09-04 05:52:42,"AI_Dev_Kush","Day 30 #RStats Basics #100DaysOfCode 

Naming rows and columns things will go slow. https://t.co/dDKkI10kzf",8,8
"x1096257616433410048","x1434022803745898499",2021-09-04 05:17:33,"AI_Dev_Kush","Day 30 #100DaysOfCode 
Have sufficient time to share my learning journey  
1) #RStats  Basics 
2) #Python for #DataScience And #ArtificiallIntelligence 
It will hardly take few minutes to post about my daily progress. here it goes.",6,11
"x1096257616433410048","x1434040989186867204",2021-09-04 06:29:49,"AI_Dev_Kush","Day 30 #100DaysOfCode 
Short and easy  
✅ #RStats  Basics 
✅ #Python for #DataScience And #ArtificiallIntelligence 
Not trying anything fancy just clearing fundamentals. https://t.co/M1w0PqYP2r",8,9
"x1384206514815074306","x1434036637298618369",2021-09-04 06:12:32,"aRtsy_package","Today's artwork generated with #rstats and #ggplot2: https://t.co/U5evlhqEmy",4,3
"x328439695","x1434033618825981957",2021-09-04 06:00:32,"verajosemanuel","Visualize Data on Spirals https://t.co/igp5xqYYNp #Rstats https://t.co/FGM4SqWPyu",3,3
"x987645988037976065","x1434033510889762818",2021-09-04 06:00:06,"daily_r_sheets","Today's #rstats cheatsheet: jfa 
Download: https://t.co/Pon5goWe7U 
See more: https://t.co/KgJ4eggU4l 
Contribute your own: https://t.co/KLVFg0ougL https://t.co/BT0BGGAJUJ",12,9
"x1296480037508493314","x1434031610853163008",2021-09-04 05:52:33,"finnstats","https://t.co/VAu5HGIPjS 
#rstats #datascience #samplesize",0,2
"x374420755","x1434025293153325062",2021-09-04 05:27:27,"ellis_hughes","Listened to @PodvsEveryone today while walking daisy - with @TheCraigPowers now an analyst, can we expect some hard-hitting #rstats breakdowns of the cougs?",2,2
"x207166307","x1434022730073088000",2021-09-04 05:17:16,"ruben_arce_s","Devops Roadmap
#Devops #cloud #Kubernetes #docker #training #security #agile #softwareengineer #AI #MachineLearning  #PyTorch #Python #RStats #TensorFlow #JavaScript #CloudComputing #Serverless #DataScientist #Linux #Programming #Coding #100DaysofCode #DataScience #Digital https://t.co/PrzqzCMd1J",78,86
"x1353244441281228802","x1434022164731158534",2021-09-04 05:15:01,"rfunctionaday","Sometimes you may wish to display a collection of images in a {ggplot2} graph.

The {geom_point_img} function from {ggimg} 📦 provides just the needed geometric layer! 📷

https://t.co/YinETxrQdk

#rstats #DataScience https://t.co/rhB2jwgsZe",179,26
"x60833699","x1434018447298551812",2021-09-04 05:00:15,"Leilanie95","Cornell robotics and artificial intelligence save grape crops. 🤖🍇😻🤖💕#WomenWhoCode #algorithm #VirtualReality #robotics #Analytics #AI #MachineLearning #IoT  #Python #RStats #TensorFlow #JavaScript #ReactJS #Serverless #codi #QuantumComputing  https://t.co/e0k4Q3ZFKR",8,26
"x1153198855548260353","x1434011090153844739",2021-09-04 04:31:01,"EconTweetingBot","Welcome to the daily review of the #EconTwitter list by @MakronomMagazin, today with tweets by @Sigginho, @schaaf_jurgen, @fdp and @PHuenermund. #rstats https://t.co/WxfWfwi98P",0,2
"x703843771419484160","x1434008196792811522",2021-09-04 04:19:31,"ayushbipinpatel","How do you tell your friends who don't do #rstats stuff that you are now a cool person? Since the day I started teaching R,I have been using artwork by @allison_horst in my classes. It has always been a hit. https://t.co/8W2X9nm7EA",7,3
"x234226460","x1434002545366626304",2021-09-04 03:57:03,"SecretChimp","More #rstats revision, as there's a test this week.",0,2
"x245127326","x1433999440424038406",2021-09-04 03:44:43,"seandavis12","Did a little housecleaning of sars2pack, an #RStats package for easy (one line) access to dozens of #COVID19 epi, #publichealth &amp; population datasets, accessed from original source, so are updated; well-suited for teaching, research, or reporting.

https://t.co/mdS56nFf1W",5,5
"x1411105375","x1433996145810890752",2021-09-04 03:31:38,"StatStas","@HistDem @AlexKarner @CoreySparks1 I don’t have any interaction with any C code in which #rstats is written, and that is hardly any of my business. Literate programming with R Markdown is just talking through your analysis process.",1,1
"x744328644","x1433989113078706178",2021-09-04 03:03:41,"aksingh1985","New cases today ➡NSW:1534|VIC:190|ACT:32. Sadly 4 more deaths in NSW. #Stayathome #GetVaccinatedNow #WearADamnMask #rstats #Datavisualization #COVID19Vic #COVID19Aus #covidnsw #nswcovid19 😷💉💉 https://t.co/TaxatrRf9R",3,0
"x14334354","x1433987152719716353",2021-09-04 02:55:54,"adamhsparks","If you are using the nasapower #RStats package, https://t.co/f6aSAoJIaz, I've made a few minor changes to the development version. It now rate limits requests to match the API and properly returns NA values. 

You can install it from GitHub using the instructions in README

1/2",14,4
"x631590094","x1433986195420233729",2021-09-04 02:52:05,"KenButler12","today I  learned that it is pleasantly difficult to draw pie charts with ggplot in R. #RStats",14,3
"x193618707","x1433984464380735491",2021-09-04 02:45:13,"techlazy_msft","Devops Roadmap
#Devops #cloud #Kubernetes #docker #training #security #agile #softwareengineer #AI #MachineLearning  #PyTorch #Python #RStats #TensorFlow #JavaScript #CloudComputing #Serverless #DataScientist #Linux #Programming #Coding #100DaysofCode https://t.co/5RsvnW1Lvx",40,49
"x3320318445","x1433981691769589761",2021-09-04 02:34:12,"datawookie","Let's do this. Busy firing up #knack now. Fun morning of #rstats loading. https://t.co/rUFQicl81c",8,5
"x397535840","x1433978884383518724",2021-09-04 02:23:02,"CoreySparks1","@HistDem @StatStas Hadoop in 7? Wth is graphpad? Never heard of it #rstats ftw!",0,1
"x71234717","x1433966693525590018",2021-09-04 01:34:36,"evalparse","I was doing a monthly internet sweep of {disk.frame} and was pleasantly surprised that Google now has a featured snippet about it!

Although, the picture selection couldn've been better. The first pic is not about {disk.frame} at all.

#diskframe #rstats https://t.co/aFsFKzVSZR",11,4
"x1426655862312034304","x1433960748766609412",2021-09-04 01:10:58,"essay_exam","FOR ANY 
EXAMS
HOMEWORK
ASSIGNEMENTS
ESSAYS
ONLINE CLASSES
LAB REPORTS
DISSERTATION
PROOFREADING
DM
 #BigData #Analytics #DataScience #IoT #Serverless #Python #RStats #TensorFlow #Java #JavaScript #DEVCommunity  #100DaysOfCode #Serverless #DataScientist  #Programming #CodeNewbie",8,21
"x1562733062","x1433942887394201603",2021-09-04 00:00:00,"TeldatCorp","Use Case | Hotel networks and online booking
https://t.co/Drvwnh8tzR

#Teldat5GResilience
#5G #mobility #IoT #edgecomputing #FutureofWork #Cloud #cloudcomputing #tech #RPA #DigitalTransformation #Automation #AI #BigData #Rstats #Reactjs #EdgeComputing https://t.co/eLk42BGIWy",2,4
"x1562733062","x1433957993624780802",2021-09-04 01:00:01,"TeldatCorp","Use Case | Healthcare networks
https://t.co/DPbI3nBX83

#Teldat5GResilience
#5G #mobility #IoT #edgecomputing #FutureofWork #Cloud #cloudcomputing #tech #RPA #DigitalTransformation #Automation #AI #BigData #Rstats #Reactjs #EdgeComputing #smarthealth https://t.co/5AS1zck5XJ",2,6
"x1823987821","x1433956116573028355",2021-09-04 00:52:34,"nj_tierney","Really excited about this #rstats virtual coworking! Come along! https://t.co/o7UIKiNLmI",16,4
"x982314016377798656","x1433953405328887810",2021-09-04 00:41:48,"VicRicchezzaGeo","@RiverChem Also use hashtag #RStats and you'll get a lot more responses. Helped me a lot with my dissertation code. I'm terrible at it. (a friend also helped a lot)",1,1
"x946151815","x1433950832664449029",2021-09-04 00:31:34,"researchremora","I would use `render_snapshot` via #rayvertex but I'm on Windows and have too many cores. :P So I went with `render_highquality` as an alternative. 🙃

#rayshader adventures, an #rstats tale https://t.co/CORbJiLqsm https://t.co/AzdtfqoyHP",24,5
"x1138797360975306752","x1433947714018951169",2021-09-04 00:19:11,"_davecooley","TFW when you find a bug, and it puts your development of quite a big feature on hold for a year or so, only to find it was an error in your test code, rather than the package.

Who can spot the mistake I've made here:
(hint, you don't need to know the function) #rstats #rspatial https://t.co/iywRzfIpSd",4,4
